#mu n n_h sigma_xx sigma_yy sigma_xy	#mu          density      sigma1_xx       sigma2_xx       sigma1_xy       sigma2_xy       alpha1_xx       alpha2_xx       alpha1_xy       alpha2_xy       beta1_xx        beta2_xx        beta1_xy        beta2_xy
-4.0 1.0 0.0008970998477239812 3.183564180625354e-42 3.1835641806253556e-42 7.051411224659871e-62	-4.00000000  1.00000000   3.86298820e-05  3.86298820e-05 -1.72123860e-06 -1.72123860e-06  5.20084027e-06  5.20084027e-06 -4.82740039e-07 -4.82740039e-07  1.04868566e-04  1.04868566e-04 -4.98721654e-06 -4.98721654e-06 
-3.979949874686717 1.0 0.0008935442787207844 3.5292229075902944e-42 3.529222907590294e-42 8.70024949264649e-62	-3.98000000  1.00000000   4.28359063e-05  4.28359063e-05 -2.12647482e-06 -2.12647482e-06  6.07476124e-06  6.07476124e-06 -6.28182947e-07 -6.28182947e-07  1.16623771e-04  1.16623771e-04 -6.22018676e-06 -6.22018676e-06 
-3.9598997493734336 1.0 0.0008902539341321746 3.933865768841351e-42 3.933865768841351e-42 1.0849626266521548e-61	-3.96000000  1.00000000   4.77633277e-05  4.77633277e-05 -2.65594443e-06 -2.65594443e-06  7.15567762e-06  7.15567762e-06 -8.29125179e-07 -8.29125179e-07  1.30480001e-04  1.30480001e-04 -7.85562180e-06 -7.85562180e-06 
-3.9398496240601504 1.0 0.0008872557802576194 4.411626625150336e-42 4.411626625150335e-42 1.369109762279952e-61	-3.94000000  1.00000000   5.35863631e-05  5.35863631e-05 -3.35783521e-06 -3.35783521e-06  8.50856167e-06  8.50856167e-06 -1.11184589e-06 -1.11184589e-06  1.46973081e-04  1.46973081e-04 -1.00622968e-05 -1.00622968e-05 
-3.919799498746867 1.0 0.0008845820731238928 4.981107372322808e-42 4.981107372322799e-42 1.7506659278568033e-61	-3.92000000  1.00000000   6.05349172e-05  6.05349172e-05 -4.30349628e-06 -4.30349628e-06  1.02244385e-05  1.02244385e-05 -1.51784766e-06 -1.51784766e-06  1.66822401e-04  1.66822401e-04 -1.30982037e-05 -1.30982037e-05 
-3.899749373433584 0.9999999999999999 0.0008822721284851453 5.667172604951533e-42 5.667172604951524e-42 2.2720606842851553e-61	-3.90000000  1.00000000   6.89172905e-05  6.89172905e-05 -5.60103383e-06 -5.60103383e-06  1.24334225e-05  1.24334225e-05 -2.11454690e-06 -2.11454690e-06  1.91012479e-04  1.91012479e-04 -1.73692871e-05 -1.73692871e-05 
-3.8796992481203008 0.999999999999999 0.0008803749363065342 6.503637907445823e-42 6.503637907445818e-42 2.9987112141825822e-61	-3.88000000  1.00000000   7.91544215e-05  7.91544215e-05 -7.41855963e-06 -7.41855963e-06  1.53257693e-05  1.53257693e-05 -3.01501876e-06 -3.01501876e-06  2.20920496e-04  2.20920496e-04 -2.35360472e-05 -2.35360472e-05 
-3.8596491228070176 0.999999999999993 0.0008789531305700022 7.537394056769398e-42 7.537394056769408e-42 4.034282726509975e-61	-3.86000000  1.00000000   9.18328506e-05  9.18328506e-05 -1.00253335e-05 -1.00253335e-05  1.91869362e-05  1.91869362e-05 -4.41603580e-06 -4.41603580e-06  2.58522239e-04  2.58522239e-04 -3.27162833e-05 -3.27162833e-05 
-3.8395989974937343 0.9999999999999477 0.0008780892011920084 8.834905612953193e-42 8.834905612953201e-42 5.548234369023363e-61	-3.84000000  1.00000000   1.07789016e-04  1.07789016e-04 -1.38674846e-05 -1.38674846e-05  2.44580599e-05  2.44580599e-05 -6.67503013e-06 -6.67503013e-06  3.06737284e-04  3.06737284e-04 -4.68928385e-05 -4.68928385e-05 
-3.819548872180451 0.999999999999612 0.0008778955422450376 1.0492763963223428e-41 1.0492763963223436e-41 7.82756295738256e-61	-3.82000000  1.00000000   1.28247867e-04  1.28247867e-04 -1.97138285e-05 -1.97138285e-05  3.18445538e-05  3.18445538e-05 -1.04750628e-05 -1.04750628e-05  3.70033179e-04  3.70033179e-04 -6.97910835e-05 -6.97910835e-05 
-3.799498746867168 0.9999999999971183 0.000878531316979966 1.2655418742375504e-41 1.2655418742375494e-41 1.1378510070123267e-60	-3.80000000  1.00000000   1.55059462e-04  1.55059462e-04 -2.89519255e-05 -2.89519255e-05  4.25202914e-05  4.25202914e-05 -1.72033981e-05 -1.72033981e-05  4.55537374e-04  4.55537374e-04 -1.08925928e-04 -1.08925928e-04 
-3.7794486215538847 0.9999999999785997 0.000880231963807517 1.5546148973416286e-41 1.5546148973416286e-41 1.713713119046787e-60	-3.78000000  1.00000000   1.91120588e-04  1.91120588e-04 -4.42277996e-05 -4.42277996e-05  5.85319202e-05  5.85319202e-05 -2.98898275e-05 -2.98898275e-05  5.75200452e-04  5.75200452e-04 -1.80795330e-04 -1.80795330e-04 
-3.7593984962406015 0.9999999998410769 0.0008833633078648868 1.9523611008171624e-41 1.9523611008171647e-41 2.6932120096512994e-60	-3.76000000  1.00000000   2.41164240e-04  2.41164240e-04 -7.09329566e-05 -7.09329566e-05  8.36455130e-05  8.36455130e-05 -5.57254290e-05 -5.57254290e-05  7.50247769e-04  7.50247769e-04 -3.25012540e-04 -3.25012540e-04 
-3.7393483709273183 0.9999999988198075 0.0008885262891550677 2.5190453493688965e-41 2.5190453493688945e-41 4.457499429877158e-60	-3.74000000  1.00000000   3.13323459e-04  3.13323459e-04 -1.20963688e-04 -1.20963688e-04  1.25220628e-04  1.25220628e-04 -1.13371210e-04 -1.13371210e-04  1.02081021e-03  1.02081021e-03 -6.45156353e-04 -6.45156353e-04 
-3.719298245614035 0.9999999912356948 0.0008967725736851333 3.361432873614639e-41 3.3614328736146335e-41 7.864229422771646e-60	-3.72000000  0.99999999   4.22422955e-04  4.22422955e-04 -2.23114181e-04 -2.23114181e-04  1.98540287e-04  1.98540287e-04 -2.55379981e-04 -2.55379981e-04  1.46730702e-03  1.46730702e-03 -1.42915028e-03 -1.42915028e-03 
-3.699248120300752 0.9999999349160074 0.0009100808030950652 4.680748704833253e-41 4.68074870483326e-41 1.5025893427871849e-59	-3.70000000  0.99999994   5.97316467e-04  5.97316467e-04 -4.54234019e-04 -4.54234019e-04  3.36899654e-04  3.36899654e-04 -6.37967211e-04 -6.37967211e-04  2.25686418e-03  2.25686418e-03 -3.49279452e-03 -3.49279452e-03 
-3.6791979949874687 0.9999995167499941 0.0009324932177374226 6.884002291127564e-41 6.884002291127565e-41 3.1719471081962024e-59	-3.68000000  0.99999955   8.97834011e-04  8.97834011e-04 -1.03725673e-03 -1.03725673e-03  6.13624637e-04  6.13624637e-04 -1.72620289e-03 -1.72620289e-03  3.73333888e-03  3.73333888e-03 -9.04761405e-03 -9.04761405e-03 
-3.6591478696741855 0.9999964154730207 0.0009730413640611387 1.0857475343085304e-40 1.0857475343085298e-40 7.561640173018751e-59	-3.66000000  0.99999671   1.45298202e-03  1.45298202e-03 -2.64161785e-03 -2.64161785e-03  1.17953610e-03  1.17953610e-03 -4.78854001e-03 -4.78854001e-03  6.54359100e-03  6.54359100e-03 -2.33606410e-02 -2.33606410e-02 
-3.6390977443609023 0.9999736080606481 0.0010535903472619597 1.8638366630174134e-40 1.863836663017412e-40 2.057943863537131e-58	-3.64000000  0.99997586   2.53450889e-03  2.53450889e-03 -7.16870479e-03 -7.16870479e-03  2.28177800e-03  2.28177800e-03 -1.25658437e-02 -1.25658437e-02  1.16707520e-02  1.16707520e-02 -5.62093342e-02 -5.62093342e-02 
-3.619047619047619 0.9998154530566096 0.0012277157790546748 3.473322990810969e-40 3.473322990810969e-40 6.133129160035487e-58	-3.62000000  0.99983120   4.64292573e-03  4.64292573e-03 -1.90465323e-02 -1.90465323e-02  4.10792636e-03  4.10792636e-03 -2.78744616e-02 -2.78744616e-02  1.99922166e-02  1.99922166e-02 -1.17606398e-01 -1.17606398e-01 
-3.598997493734336 0.999009426495435 0.0016021158745909447 6.644197146494304e-40 6.644197146494296e-40 1.7198109244207087e-57	-3.60000000  0.99907782   8.47136681e-03  8.47136681e-03 -4.59108013e-02 -4.59108013e-02  6.45264512e-03  6.45264512e-03 -4.86532966e-02 -4.86532966e-02  3.14552273e-02  3.14552273e-02 -2.04342578e-01 -2.04342578e-01 
-3.5789473684210527 0.9970423099351118 0.002282282858780252 1.1780518223913091e-39 1.1780518223913073e-39 3.7953246285607376e-57	-3.58000000  0.99716683   1.44149725e-02  1.44149725e-02 -9.28274275e-02 -9.28274275e-02  8.78468027e-03  8.78468027e-03 -6.90844094e-02 -6.90844094e-02  4.57237481e-02  4.57237481e-02 -3.10040293e-01 -3.10040293e-01 
-3.5588972431077694 0.9944917735171692 0.003248719322849369 1.8383594960543275e-39 1.8383594960543252e-39 6.492893812354606e-57	-3.56000000  0.99463711   2.20576921e-02  2.20576921e-02 -1.54137932e-01 -1.54137932e-01  1.05756733e-02  1.05756733e-02 -8.34434916e-02 -8.34434916e-02  6.31023272e-02  6.31023272e-02 -4.40343262e-01 -4.40343262e-01 
-3.5388471177944862 0.9918150455404886 0.004396667701663342 2.5726134874519225e-39 2.5726134874519264e-39 9.395395090874857e-57	-3.54000000  0.99197006   3.06919118e-02  3.06919118e-02 -2.21849499e-01 -2.21849499e-01  1.16272671e-02  1.16272671e-02 -8.98958376e-02 -8.98958376e-02  8.36091259e-02  8.36091259e-02 -5.97527176e-01 -5.97527176e-01 
-3.518796992481203 0.9891077723892556 0.005642949857471674 3.3383049596409885e-39 3.338304959640985e-39 1.2326376545500442e-56	-3.52000000  0.98927072   3.98090814e-02  3.98090814e-02 -2.91370982e-01 -2.91370982e-01  1.21338722e-02  1.21338722e-02 -9.14591227e-02 -9.14591227e-02  1.06336961e-01  1.06336961e-01 -7.70786538e-01 -7.70786538e-01 
-3.49874686716792 0.9863836486791804 0.006943556976813554 4.116435934145825e-39 4.116435934145826e-39 1.5231768276556125e-56	-3.50000000  0.98655435   4.91334116e-02  4.91334116e-02 -3.60734643e-01 -3.60734643e-01  1.23469035e-02  1.23469035e-02 -9.09759243e-02 -9.09759243e-02  1.30283472e-01  1.30283472e-01 -9.49898943e-01 -9.49898943e-01 
-3.4786967418546366 0.9836443604971407 0.008277375965111964 4.898699021723075e-39 4.8986990217230714e-39 1.8094993801111182e-56	-3.48000000  0.98382287   5.85338799e-02  5.85338799e-02 -4.29242307e-01 -4.29242307e-01  1.24193428e-02  1.24193428e-02 -8.97538604e-02 -8.97538601e-02  1.54791228e-01  1.54791228e-01 -1.12938996e+00 -1.12938996e+00 
-3.4586466165413534 0.9808899532308772 0.009634201603111302 5.6812401490318376e-39 5.6812401490318435e-39 2.091029555146407e-56	-3.46000000  0.98107636   6.79495869e-02  6.79495869e-02 -4.96654968e-01 -4.96654968e-01  1.24255381e-02  1.24255381e-02 -8.82714233e-02 -8.82714247e-02  1.79510903e-01  1.79510903e-01 -1.30695388e+00 -1.30695389e+00 
-3.43859649122807 0.9781202481473933 0.011008951536062704 6.462131624273964e-39 6.462131624273971e-39 2.367528664408591e-56	-3.44000000  0.97831463   7.73510564e-02  7.73510564e-02 -5.62883811e-01 -5.62883811e-01  1.23992742e-02  1.23992742e-02 -8.66892424e-02 -8.66892398e-02  2.04272489e-01  2.04272489e-01 -1.48172485e+00 -1.48172483e+00 
-3.418546365914787 0.9753350257164488 0.012399054223772911 7.240337950043869e-39 7.240337950043868e-39 2.6388744157231455e-56	-3.42000000  0.97553748   8.67230648e-02  8.67230647e-02 -6.27889390e-01 -6.27889385e-01  1.23560821e-02  1.23560819e-02 -8.50612543e-02 -8.50612462e-02  2.28993937e-01  2.28993936e-01 -1.65338032e+00 -1.65338030e+00 
-3.398496240601504 0.9725340687670592 0.01380324240323549 8.015266779049583e-39 8.015266779049575e-39 2.9049887528453624e-56	-3.40000000  0.97274469   9.60572003e-02  9.60572003e-02 -6.91649507e-01 -6.91649507e-01  1.23034555e-02  1.23034561e-02 -8.34064356e-02 -8.34064694e-02  2.53634099e-01  2.53634101e-01 -1.82178710e+00 -1.82178724e+00 
-3.3784461152882206 0.9697171375685618 0.015220969447281142 8.786560279187457e-39 8.786560279187438e-39 3.1658116844726854e-56	-3.38000000  0.96993602   1.05348520e-01  1.05348521e-01 -7.54148468e-01 -7.54148516e-01  1.22452406e-02  1.22452409e-02 -8.17319769e-02 -8.17319968e-02  2.78171060e-01  2.78171061e-01 -1.98687770e+00 -1.98687776e+00 
-3.3583959899749374 0.9668839905525815 0.016652115329108215 9.553991610295236e-39 9.553991610295233e-39 3.421290152526132e-56	-3.36000000  0.96711125   1.14593964e-01  1.14593963e-01 -8.15373300e-01 -8.15373242e-01  1.21835344e-02  1.21835324e-02 -8.00407229e-02 -8.00406082e-02  3.02592357e-01  3.02592350e-01 -2.14860772e+00 -2.14860733e+00 
-3.338345864661654 0.9640344059160643 0.01809682303248549 1.0317411272546853e-38 1.0317411272546862e-38 3.6713750503430832e-56	-3.34000000  0.96427012   1.23791543e-01  1.23791540e-01 -8.75311919e-01 -8.75311723e-01  1.21195425e-02  1.21195401e-02 -7.83336466e-02 -7.83335122e-02  3.26890451e-01  3.26890439e-01 -2.30694106e+00 -2.30694038e+00 
-3.318295739348371 0.9611681235948525 0.01955541193425961 1.1076717160300499e-38 1.1076717160300499e-38 3.916018818091971e-56	-3.32000000  0.96141240   1.32939912e-01  1.32939914e-01 -9.33952463e-01 -9.33952517e-01  1.20539939e-02  1.20539948e-02 -7.66110436e-02 -7.66110898e-02  3.51060536e-01  3.51060536e-01 -2.46184473e+00 -2.46184469e+00 
-3.2982456140350878 0.9582848621992615 0.02102833541612386 1.1831836705278644e-38 1.1831836705278634e-38 4.155172375194743e-56	-3.30000000  0.95853782   1.42038135e-01  1.42038146e-01 -9.91283387e-01 -9.91283957e-01  1.19873501e-02  1.19873555e-02 -7.48729771e-02 -7.48732536e-02  3.75099410e-01  3.75099438e-01 -2.61328720e+00 -2.61328867e+00 
-3.2781954887218046 0.9553843613292008 0.022516149710323535 1.2582716829378673e-38 1.2582716829378658e-38 4.388785189711881e-56	-3.28000000  0.95564613   1.51085543e-01  1.51085556e-01 -1.04729328e+00 -1.04729402e+00  1.19199127e-02  1.19199225e-02 -7.31192597e-02 -7.31197751e-02  3.99004866e-01  3.99004913e-01 -2.76123764e+00 -2.76124021e+00 
-3.2581453634085213 0.9524663641453756 0.024019491206024892 1.3329318133846119e-38 1.3329318133846108e-38 4.61680646594865e-56	-3.26000000  0.95273705   1.60081638e-01  1.60081641e-01 -1.10197039e+00 -1.10197059e+00  1.18518858e-02  1.18519002e-02 -7.13496002e-02 -7.13503611e-02  4.22775325e-01  4.22775368e-01 -2.90566475e+00 -2.90566706e+00 
-3.238095238095238 0.9495306057246274 0.025539063973767737 1.4071611146260887e-38 1.4071611146260913e-38 4.83918562025524e-56	-3.24000000  0.94981031   1.69026045e-01  1.69026029e-01 -1.15530243e+00 -1.15530160e+00  1.17834131e-02  1.17834294e-02 -6.95636793e-02 -6.95645595e-02  4.46409616e-01  4.46409635e-01 -3.04653589e+00 -3.04653693e+00 
-3.218045112781955 0.946576789039449 0.027075639563023043 1.4809573179366807e-38 1.4809573179366812e-38 5.055870789806128e-56	-3.22000000  0.94686561   1.77918470e-01  1.77918431e-01 -1.20727669e+00 -1.20727472e+00  1.17145988e-02  1.17146117e-02 -6.77611573e-02 -6.77618707e-02  4.69906854e-01  4.69906850e-01 -3.18381743e+00 -3.18381720e+00 
-3.1979949874686717 0.9436046255210173 0.028630055373723214 1.5543186637971757e-38 1.5543186637971775e-38 5.266808673549219e-56	-3.20000000  0.94390269   1.86758686e-01  1.86758629e-01 -1.25788020e+00 -1.25787729e+00  1.16455213e-02  1.16455247e-02 -6.59416500e-02 -6.59418798e-02  4.93266366e-01  4.93266351e-01 -3.31747511e+00 -3.31747434e+00 
-3.1779448621553885 0.9406137934579466 0.03020321547050318 1.6272437702076667e-38 1.627243770207669e-38 5.471944205132739e-56	-3.18000000  0.94092121   1.95546518e-01  1.95546448e-01 -1.30709981e+00 -1.30709622e+00  1.15762366e-02  1.15762265e-02 -6.41045565e-02 -6.41040948e-02  5.16487631e-01  5.16487622e-01 -3.44747374e+00 -3.44747329e+00 
-3.1578947368421053 0.9376039691462239 0.03179609680641599 1.6997314969426682e-38 1.6997314969426778e-38 5.671219284064335e-56	-3.16000000  0.93792088   2.04281828e-01  2.04281747e-01 -1.35492188e+00 -1.35491777e+00  1.15067892e-02  1.15067647e-02 -6.22492405e-02 -6.22480495e-02  5.39570253e-01  5.39570264e-01 -3.57377743e+00 -3.57377803e+00 
-3.137844611528822 0.9345748473922824 0.03340974418921622 1.771780994092923e-38 1.7717809940929163e-38 5.864574846041447e-56	-3.14000000  0.93490138   2.12964512e-01  2.12964421e-01 -1.40133259e+00 -1.40132795e+00  1.14372196e-02  1.14371832e-02 -6.03752257e-02 -6.03734349e-02  5.62513935e-01  5.62513980e-01 -3.69634947e+00 -3.69635180e+00 
-3.117794486215539 0.9315260873165634 0.035045272891029704 1.843391667324868e-38 1.843391667324867e-38 6.051950959960495e-56	-3.12000000  0.93186238   2.21594501e-01  2.21594394e-01 -1.44631787e+00 -1.44631253e+00  1.13675594e-02  1.13675166e-02 -5.84818881e-02 -5.84797760e-02  5.85318458e-01  5.85318554e-01 -3.81515205e+00 -3.81515691e+00 
-3.0977443609022557 0.9284573212933458 0.0367038816722805 1.9145630293285993e-38 1.9145630293285988e-38 6.233284462005291e-56	-3.10000000  0.92880352   2.30171734e-01  2.30171607e-01 -1.48986291e+00 -1.48985654e+00  1.12978320e-02  1.12977911e-02 -5.65684321e-02 -5.65664147e-02  6.07983652e-01  6.07983821e-01 -3.93014562e+00 -3.93015410e+00 
-3.0776942355889725 0.9253681954859063 0.038386856019707906 1.9852947166767085e-38 1.9852947166767093e-38 6.408509554769412e-56	-3.08000000  0.92572445   2.38696168e-01  2.38696012e-01 -1.53195215e+00 -1.53194442e+00  1.12280613e-02  1.12280333e-02 -5.46341545e-02 -5.46327705e-02  6.30509393e-01  6.30509662e-01 -4.04128903e+00 -4.04130239e+00 
-3.0576441102756893 0.9222583612457178 0.04009556479156783 2.0555866169840354e-38 2.0555866169840354e-38 6.57756023547458e-56	-3.06000000  0.92262483   2.47167785e-01  2.47167596e-01 -1.57256980e+00 -1.57256046e+00  1.11582724e-02  1.11582699e-02 -5.26784302e-02 -5.26782939e-02  6.52895628e-01  6.52896020e-01 -4.14854053e+00 -4.14855985e+00 
-3.037593984962406 0.9191274459493504 0.04183146463821615 2.125438889451195e-38 2.1254388894511984e-38 6.740370681154519e-56	-3.04000000  0.91950429   2.55586592e-01  2.55586371e-01 -1.61169979e+00 -1.61168894e+00  1.10884895e-02  1.10885245e-02 -5.07006072e-02 -5.07023002e-02  6.75142388e-01  6.75142908e-01 -4.25185823e+00 -4.25188374e+00 
-3.017543859649123 0.9159750480870867 0.04359611253332815 2.1948518753445313e-38 2.194851875344535e-38 6.896873711749768e-56	-3.02000000  0.91636243   2.63952610e-01  2.63952372e-01 -1.64932536e+00 -1.64931367e+00  1.10187384e-02  1.10188184e-02 -4.87000801e-02 -4.87039765e-02  6.97249762e-01  6.97250379e-01 -4.35119940e+00 -4.35122955e+00 
-2.9974937343358397 0.9128007519887114 0.04539117936338628 2.2638260187472814e-38 2.2638260187472855e-38 7.0469993849170545e-56	-3.00000000  0.91319884   2.72265868e-01  2.72265641e-01 -1.68542884e+00 -1.68541774e+00  1.09490487e-02  1.09491729e-02 -4.66763817e-02 -4.66824416e-02  7.19217877e-01  7.19218506e-01 -4.44651956e+00 -4.44655027e+00 
-2.9774436090225564 0.9096041397138515 0.047218462759672224 2.3323618429358696e-38 2.3323618429358733e-38 7.190674297670085e-56	-2.98000000  0.91001309   2.80526405e-01  2.80526235e-01 -1.71999181e+00 -1.71998345e+00  1.08794531e-02  1.08796089e-02 -4.46291205e-02 -4.46367343e-02  7.41046887e-01  7.41047389e-01 -4.53777223e+00 -4.53779678e+00 
-2.9573934837092732 0.9063847910848282 0.04907990214360088 2.4004599451209723e-38 2.4004599451209687e-38 7.327820885208012e-56	-2.96000000  0.90680476   2.88734282e-01  2.88734219e-01 -1.75299540e+00 -1.75299230e+00  1.08099837e-02  1.08101466e-02 -4.25578199e-02 -4.25658052e-02  7.62736986e-01  7.62737189e-01 -4.62490878e+00 -4.62491889e+00 
-2.93734335839599 0.9031422753968099 0.0509775975228459 2.4681209774077677e-38 2.4681209774077713e-38 7.458356335013072e-56	-2.94000000  0.90357341   2.96889587e-01  2.96889676e-01 -1.78442062e+00 -1.78442485e+00  1.07406683e-02  1.07408068e-02 -4.04617761e-02 -4.04685957e-02  7.84288397e-01  7.84288153e-01 -4.70787793e+00 -4.70786633e+00 
-2.917293233082707 0.899876140712466 0.052913829175159986 2.535345630843352e-38 2.535345630843346e-38 7.582191710813617e-56	-2.92000000  0.90031859   3.04992447e-01  3.04992699e-01 -1.81424847e+00 -1.81426061e+00  1.06715302e-02  1.06716145e-02 -3.83399867e-02 -3.83441695e-02  8.05701371e-01  8.05700625e-01 -4.78662517e+00 -4.78658912e+00 
-2.8972431077694236 0.8965859048031205 0.05489107255810298 2.6021346687892277e-38 2.602134668789227e-38 7.699232370439577e-56	-2.90000000  0.89703981   3.13043019e-01  3.13043394e-01 -1.84245975e+00 -1.84247803e+00  1.06025892e-02  1.06026010e-02 -3.61911604e-02 -3.61917901e-02  8.26976183e-01  8.26975040e-01 -4.86109268e+00 -4.86103707e+00 
-2.8771929824561404 0.8932710504930368 0.05691200408476667 2.66848904039383e-38 2.6684890403938284e-38 7.8093803297573975e-56	-2.88000000  0.89373659   3.21041483e-01  3.21041893e-01 -1.86903468e+00 -1.86905474e+00  1.05338640e-02  1.05338040e-02 -3.40138055e-02 -3.40108772e-02  8.48113161e-01  8.48111898e-01 -4.93122028e+00 -4.93115838e+00 
-2.857142857142857 0.8899310274382267 0.05897949896983737 2.734410054518102e-38 2.734410054518104e-38 7.912538058641679e-56	-2.86000000  0.89040840   3.28988035e-01  3.28988356e-01 -1.89395221e+00 -1.89396807e+00  1.04653761e-02  1.04652641e-02 -3.18063768e-02 -3.18008520e-02  8.69112721e-01  8.69111725e-01 -4.99694703e+00 -4.99689768e+00 
-2.837092731829574 0.8865652606776522 0.0610966298325623 2.799899540128915e-38 2.799899540128912e-38 8.008611935249779e-56	-2.84000000  0.88705471   3.36882874e-01  3.36882991e-01 -1.91718949e+00 -1.91719552e+00  1.03971523e-02  1.03970217e-02 -2.95674246e-02 -2.95609475e-02  8.89975407e-01  8.89975043e-01 -5.05821294e+00 -5.05819412e+00 
-2.817042606516291 0.8831731632486748 0.06326667963650397 2.8649598989091155e-38 2.8649598989091134e-38 8.097513091854229e-56	-2.82000000  0.88367497   3.44726201e-01  3.44726058e-01 -1.93872162e+00 -1.93871492e+00  1.03292265e-02  1.03291138e-02 -2.72956801e-02 -2.72900733e-02  9.10701905e-01  9.10702358e-01 -5.11495945e+00 -5.11498063e+00 
-2.7969924812030076 0.8797541471765464 0.06549318038124191 2.9295939933666764e-38 2.929593993366684e-38 8.179154253775537e-56	-2.80000000  0.88026859   3.52518229e-01  3.52517860e-01 -1.95852198e+00 -1.95850400e+00  1.02616387e-02  1.02615731e-02 -2.49900405e-02 -2.49867868e-02  9.31293027e-01  9.31294193e-01 -5.16712818e+00 -5.16718500e+00 
-2.7769423558897244 0.8763076264748539 0.06777997878974439 2.9938048975085644e-38 2.993804897508568e-38 8.253443197126458e-56	-2.78000000  0.87683498   3.60259206e-01  3.60258732e-01 -1.97656299e+00 -1.97653953e+00  1.01944331e-02  1.01944299e-02 -2.26494776e-02 -2.26493604e-02  9.51749655e-01  9.51751154e-01 -5.21465817e+00 -5.21473243e+00 
-2.756892230576441 0.8728330087246272 0.0701313167066634 3.0575956193024747e-38 3.0575956193024747e-38 8.320275530661137e-56	-2.76000000  0.87337351   3.67949431e-01  3.67949018e-01 -1.99281704e+00 -1.99279623e+00  1.01276560e-02  1.01277139e-02 -2.02729323e-02 -2.02758979e-02  9.72072689e-01  9.72073997e-01 -5.25748268e+00 -5.25754861e+00 
-2.736842105263158 0.8693296771714776 0.07255190539529949 3.1209689296061705e-38 3.120968929606173e-38 8.379530266000634e-56	-2.74000000  0.86988354   3.75589270e-01  3.75589062e-01 -2.00725690e+00 -2.00724611e+00  1.00613564e-02  1.00614590e-02 -1.78592517e-02 -1.78644647e-02  9.92263034e-01  9.92263690e-01 -5.29552738e+00 -5.29556169e+00 
-2.7167919799498748 0.8657969697961841 0.0750469759443665 3.183927381860234e-38 3.1839273818602366e-38 8.431070430327684e-56	-2.72000000  0.86636437   3.83179144e-01  3.83179211e-01 -2.01985553e+00 -2.01985840e+00  9.99558943e-03  9.99570874e-03 -1.54071827e-02 -1.54132199e-02  1.01232164e+00  1.01232143e+00 -5.32871085e+00 -5.32870197e+00 
-2.6967418546365916 0.8622341627167479 0.07762230207094571 3.246473519026476e-38 3.2464735190264723e-38 8.474748468451387e-56	-2.70000000  0.86281532   3.90719516e-01  3.90719824e-01 -2.03058510e+00 -2.03060028e+00  9.93042248e-03  9.93052493e-03 -1.29153898e-02 -1.29205507e-02  1.03224957e+00  1.03224860e+00 -5.35694719e+00 -5.35689951e+00 
-2.6766917293233083 0.8586404628691368 0.0802842088455321 3.3086102090752834e-38 3.308610209075275e-38 8.510413956782778e-56	-2.68000000  0.85923561   3.98210866e-01  3.98211299e-01 -2.03941591e+00 -2.03943782e+00  9.86594103e-03  9.86599568e-03 -1.03824402e-02 -1.03851574e-02  1.05204815e+00  1.05204680e+00 -5.38014927e+00 -5.38008054e+00 
-2.656641604010025 0.8550150117607356 0.08303959151102873 3.3703410664208425e-38 3.3703410664208503e-38 8.537920496456446e-56	-2.66000000  0.85562445   4.05653686e-01  4.05654097e-01 -2.04631566e+00 -2.04633692e+00  9.80224852e-03  9.80223600e-03 -7.80670107e-03 -7.80598629e-03  1.07171896e+00  1.07171768e+00 -5.39823042e+00 -5.39816399e+00 
-2.636591478696742 0.8513569000835033 0.0858959680500896 3.4316709578130275e-38 3.4316709578130144e-38 8.557129536147768e-56	-2.64000000  0.85198099   4.13048505e-01  4.13048773e-01 -2.05124954e+00 -2.05126380e+00  9.73945365e-03  9.73937290e-03 -5.18613102e-03 -5.18191348e-03  1.09126379e+00  1.09126297e+00 -5.41110337e+00 -5.41105910e+00 
-2.6165413533834587 0.8476651918166538 0.08886158053069805 3.4926065384926934e-38 3.492606538492688e-38 8.56791004494125e-56	-2.62000000  0.84830430   4.20395949e-01  4.20396014e-01 -2.05418111e+00 -2.05418504e+00  9.67764318e-03  9.67751273e-03 -2.51803089e-03 -2.51123169e-03  1.11068445e+00  1.11068426e+00 -5.41867648e+00 -5.41866447e+00 
-2.5964912280701755 0.8439389537920798 0.09194554959260942 3.5531565344013285e-38 3.553156534401326e-38 8.570133254865822e-56	-2.60000000  0.84459347   4.27696805e-01  4.27696677e-01 -2.05507328e+00 -2.05506706e+00  9.61685342e-03  9.61670592e-03  2.01040646e-04  2.08766823e-04  1.12998257e+00  1.12998297e+00 -5.42084982e+00 -5.42086885e+00 
-2.5764411027568923 0.8401772792915981 0.09515807540295207 3.61333119966035e-38 3.613331199660348e-38 8.563661622280073e-56	-2.58000000  0.84084755   4.34952051e-01  4.34951789e-01 -2.05388849e+00 -2.05387503e+00  9.55707196e-03  9.55694381e-03  2.97490095e-03  2.98167364e-03  1.14915954e+00  1.14916033e+00 -5.41751411e+00 -5.41755453e+00 
-2.556390977443609 0.8363792831374177 0.09851066307038263 3.673140450176032e-38 3.6731404501760337e-38 8.54833303655486e-56	-2.56000000  0.83706562   4.42162782e-01  4.42162468e-01 -2.05058749e+00 -2.05057084e+00  9.49830244e-03  9.49822291e-03  5.80683580e-03  5.81110358e-03  1.16821688e+00  1.16821780e+00 -5.40855496e+00 -5.40860369e+00 
-2.536340852130326 0.8325440433300529 0.10201633211623094 3.732591090454842e-38 3.7325910904548406e-38 8.523946819979452e-56	-2.54000000  0.83324678   4.49330033e-01  4.49329737e-01 -2.04512690e+00 -2.04511082e+00  9.44068171e-03  9.44066561e-03  8.69864220e-03  8.69956985e-03  1.18715697e+00  1.18715780e+00 -5.39386041e+00 -5.39390578e+00 
-2.5162907268170427 0.8286704901892918 0.10568976918769991 3.791685208130502e-38 3.791685208130502e-38 8.490264212391747e-56	-2.52000000  0.82939002   4.56454574e-01  4.56454342e-01 -2.03745739e+00 -2.03744447e+00  9.38455620e-03  9.38460248e-03  1.16507135e-02  1.16482826e-02  1.20598379e+00  1.20598440e+00 -5.37332533e+00 -5.37335988e+00 
-2.4962406015037595 0.8247573017341762 0.10954743499180801 3.8504228070405343e-38 3.8504228070405374e-38 8.447033864784757e-56	-2.50000000  0.82549411   4.63536918e-01  4.63536769e-01 -2.02752490e+00 -2.02751625e+00  9.33038059e-03  9.33047610e-03  1.46639735e-02  1.46588150e-02  1.22470278e+00  1.22470314e+00 -5.34684444e+00 -5.34686553e+00 
-2.4761904761904763 0.8208029133395299 0.11360774088906622 3.9088097559827373e-38 3.908809755982738e-38 8.394034493769371e-56	-2.48000000  0.82155757   4.70577737e-01  4.70577665e-01 -2.01527554e+00 -2.01527109e+00  9.27841251e-03  9.27853833e-03  1.77427067e-02  1.77357864e-02  1.24331930e+00  1.24331943e+00 -5.31429336e+00 -5.31430212e+00 
-2.456140350877193 0.8168057112146363 0.11789147834768329 3.9668663798913676e-38 3.966866379891341e-38 8.331099787834116e-56	-2.46000000  0.81757875   4.77578564e-01  4.77578553e-01 -2.00066116e+00 -2.00066012e+00  9.22845247e-03  9.22859007e-03  2.08952449e-02  2.08875452e-02  1.26183633e+00  1.26183629e+00 -5.27551116e+00 -5.27551075e+00 
-2.43609022556391 0.8127643116304424 0.1224225690837883 4.024626690414545e-38 4.024626690414532e-38 8.258084514463964e-56	-2.44000000  0.81355615   4.84542196e-01  4.84542225e-01 -1.98363882e+00 -1.98364010e+00  9.18005634e-03  9.18019154e-03  2.41300350e-02  2.41223344e-02  1.28025388e+00  1.28025375e+00 -5.23030605e+00 -5.23030015e+00 
-2.4160401002506267 0.8086776423696191 0.12722889321648842 4.0821219097961685e-38 4.0821219097961685e-38 8.174774810277937e-56	-2.42000000  0.80948858   4.91472009e-01  4.91472059e-01 -1.96416032e+00 -1.96416291e+00  9.13331925e-03  9.13344362e-03  2.74495366e-02  2.74423214e-02  1.29857212e+00  1.29857195e+00 -5.17849080e+00 -5.17848254e+00 
-2.3959899749373434 0.8045445903808767 0.1323427693088727 4.1393584855845526e-38 4.139358485584557e-38 8.0808206440242e-56	-2.40000000  0.80537501   4.98370282e-01  4.98370339e-01 -1.94215842e+00 -1.94216147e+00  9.08950518e-03  9.08961537e-03  3.08496460e-02  3.08431329e-02  1.31679692e+00  1.31679676e+00 -5.11991931e+00 -5.11991086e+00 
-2.3759398496240602 0.8003633902317291 0.13780107058715468 4.196317208431164e-38 4.1963172084311687e-38 7.975788603943079e-56	-2.38000000  0.80121401   5.05237112e-01  5.05237165e-01 -1.91754528e+00 -1.91754818e+00  9.05039531e-03  9.05049131e-03  3.43293513e-02  3.43235737e-02  1.33494201e+00  1.33494187e+00 -5.05447678e+00 -5.05446935e+00 
-2.355889724310777 0.7961314017210772 0.14364584892998644 4.252989837869262e-38 4.252989837869262e-38 7.8593244179141505e-56	-2.36000000  0.79700322   5.12071956e-01  5.12071998e-01 -1.89023189e+00 -1.89023420e+00  9.01640106e-03  9.01648421e-03  3.79021230e-02  3.78970367e-02  1.35302251e+00  1.35302240e+00 -4.98201337e+00 -4.98200735e+00 
-2.335839598997494 0.7918457930103923 0.1499265418608714 4.309425017066345e-38 4.3094250170663425e-38 7.731250399119017e-56	-2.34000000  0.79273974   5.18877443e-01  5.18877470e-01 -1.86015171e+00 -1.86015315e+00  8.98565833e-03  8.98572974e-03  4.15918476e-02  4.15874218e-02  1.37104437e+00  1.37104429e+00 -4.90228572e+00 -4.90228096e+00 
-2.3157894736842106 0.7875046190296178 0.1567032958808366 4.3657206139170284e-38 4.365720613917034e-38 7.591425846435449e-56	-2.32000000  0.78842118   5.25661276e-01  5.25661286e-01 -1.82725601e+00 -1.82725641e+00  8.95643234e-03  8.95649197e-03  4.54109245e-02  4.54071963e-02  1.38900310e+00  1.38900303e+00 -4.81498938e+00 -4.81498538e+00 
-2.2957393483709274 0.7831068764082739 0.16404900917487317 4.4219425754824075e-38 4.4219425754824153e-38 7.439473333927049e-56	-2.30000000  0.78404628   5.32432119e-01  5.32432112e-01 -1.79147405e+00 -1.79147339e+00  8.93112002e-03  8.93116668e-03  4.93472796e-02  4.93443553e-02  1.40689945e+00  1.40689939e+00 -4.71986535e+00 -4.71986152e+00 
-2.275689223057644 0.7786509251795967 0.1720490170922425 4.478058560078615e-38 4.4780585600785917e-38 7.274731145542885e-56	-2.28000000  0.77961387   5.39192520e-01  5.39192499e-01 -1.75268340e+00 -1.75268186e+00  8.91595996e-03  8.91599225e-03  5.33871902e-02  5.33851851e-02  1.42475661e+00  1.42475655e+00 -4.61674444e+00 -4.61674047e+00 
-2.255639097744361 0.7741329322566078 0.18080249713432495 4.534006171545938e-38 4.534006171545944e-38 7.096584784512243e-56	-2.26000000  0.77512096   5.45939064e-01  5.45939036e-01 -1.71074024e+00 -1.71073826e+00  8.91420435e-03  8.91422219e-03  5.75521336e-02  5.75510660e-02  1.44261267e+00  1.44261261e+00 -4.50544221e+00 -4.50543834e+00 
-2.235588972431078 0.7695478242617235 0.19043156253385632 4.589857050181527e-38 4.589857050181526e-38 6.904766473910755e-56	-2.24000000  0.77056261   5.52674045e-01  5.52674019e-01 -1.66554167e+00 -1.66553990e+00  8.92125021e-03  8.92125607e-03  6.18913717e-02  6.18910787e-02  1.46049046e+00  1.46049041e+00 -4.38562756e+00 -4.38562470e+00 
-2.2155388471177946 0.7648922531666767 0.20109554326463147 4.6458474598714233e-38 4.645847459871427e-38 6.699109135608707e-56	-2.22000000  0.76593454   5.59415268e-01  5.59415253e-01 -1.61702559e+00 -1.61702463e+00  8.93239001e-03  8.93238845e-03  6.64250229e-02  6.64251928e-02  1.47838787e+00  1.47838785e+00 -4.25686633e+00 -4.25686549e+00 
-2.1954887218045114 0.7601653065418834 0.21299821531411872 4.702160190752945e-38 4.702160190752941e-38 6.479007496311984e-56	-2.20000000  0.76123518   5.66186344e-01  5.66186344e-01 -1.56508644e+00 -1.56508647e+00  8.95674083e-03  8.95673630e-03  7.11220599e-02  7.11223942e-02  1.49631828e+00  1.49631829e+00 -4.11879987e+00 -4.11880112e+00 
-2.175438596491228 0.7553647207681157 0.2263861472772794 4.758743132545121e-38 4.758743132545124e-38 6.243444908127029e-56	-2.18000000  0.75646330   5.72996513e-01  5.72996521e-01 -1.50952896e+00 -1.50952953e+00  9.01550577e-03  9.01550089e-03  7.59659796e-02  7.59663185e-02  1.51435744e+00  1.51435747e+00 -3.97118273e+00 -3.97118474e+00 
-2.155388471177945 0.7504833967662197 0.24156345442079402 4.815540697494109e-38 4.8155406974941e-38 5.991678331993282e-56	-2.16000000  0.75161353   5.79845079e-01  5.79845084e-01 -1.45015401e+00 -1.45015439e+00  9.12213320e-03  9.12212964e-03  8.10097156e-02  8.10099598e-02  1.53262908e+00  1.53262909e+00 -3.81370962e+00 -3.81371072e+00 
-2.1353383458646618 0.7455125811355545 0.25894711049450253 4.872936314433157e-38 4.872936314433165e-38 5.723477871684173e-56	-2.14000000  0.74667689   5.86759391e-01  5.86759391e-01 -1.38685419e+00 -1.38685412e+00  9.27989315e-03  9.27989255e-03  8.62995534e-02  8.62995837e-02  1.55126264e+00  1.55126264e+00 -3.64596573e+00 -3.64596558e+00 
-2.1152882205513786 0.740448272591084 0.27913760641991914 4.931739394437508e-38 4.931739394437499e-38 5.43840435166334e-56	-2.12000000  0.74164720   5.93819796e-01  5.93819794e-01 -1.31955071e+00 -1.31955055e+00  9.52385522e-03  9.52385691e-03  9.17463219e-02  9.17461875e-02  1.57045815e+00  1.57045814e+00 -3.46777561e+00 -3.46777508e+00 
-2.0952380952380953 0.7352897305883634 0.3029606112787384 4.992731055673548e-38 4.992731055673557e-38 5.135465107861139e-56	-2.10000000  0.73652345   6.01140533e-01  6.01140533e-01 -1.24810297e+00 -1.24810299e+00  9.97550892e-03  9.97550977e-03  9.70786208e-02  9.70785614e-02  1.59071741e+00  1.59071741e+00 -3.27986644e+00 -3.27986625e+00 
-2.075187969924812 0.7300290913681331 0.33152673454554676 5.056899226740708e-38 5.056899226740714e-38 4.814372044643521e-56	-2.08000000  0.73130132   6.08879181e-01  6.08879181e-01 -1.17251924e+00 -1.17251927e+00  1.08753379e-02  1.08753374e-02  1.01658433e-01  1.01658479e-01  1.61314557e+00  1.61314557e+00 -3.08502514e+00 -3.08502528e+00 
-2.055137844611529 0.724642274579711 0.366421931290069 5.127185563335424e-38 5.12718556333543e-38 4.4778157370986685e-56	-2.06000000  0.72596235   6.17388488e-01  6.17388488e-01 -1.09358426e+00 -1.09358424e+00  1.26449056e-02  1.26449055e-02  1.03672709e-01  1.03672719e-01  1.63971607e+00  1.63971607e+00 -2.89040684e+00 -2.89040691e+00 
-2.0350877192982457 0.719053521635665 0.40978651853667475 5.21128716947306e-38 5.21128716947306e-38 4.136394492512022e-56	-2.04000000  0.72045250   6.27500947e-01  6.27500947e-01 -1.01398717e+00 -1.01398717e+00  1.59719222e-02  1.59719224e-02  9.90072009e-02  9.90071884e-02  1.67329579e+00  1.67329579e+00 -2.70960286e+00 -2.70960281e+00 
-2.0150375939849625 0.7128507172967893 0.46277224417280094 5.324829571040651e-38 5.324829571040662e-38 3.8241395069216916e-56	-2.02000000  0.71450255   6.40751370e-01  6.40751370e-01 -9.40023477e-01 -9.40023476e-01  2.14388503e-02  2.14388503e-02  8.37448856e-02  8.37448891e-02  1.71649397e+00  1.71649397e+00 -2.55530481e+00 -2.55530481e+00 
-1.9949874686716793 0.7045118504049318 0.5215341602736528 5.489129034766724e-38 5.489129034766727e-38 3.605900397826978e-56	-2.00000000  0.70690378   6.59184958e-01  6.59184958e-01 -8.82449136e-01 -8.82449136e-01  2.85468795e-02  2.85468795e-02  6.22586046e-02  6.22586041e-02  1.76942511e+00  1.76942511e+00 -2.41760370e+00 -2.41760370e+00 
-1.974937343358396 0.6931866923272294 0.5825291915925319 5.71120390843099e-38 5.711203908430987e-38 3.4948395758521364e-56	-1.98000000  0.69624397   6.83977288e-01  6.83977288e-01 -8.47058820e-01 -8.47058820e-01  3.58032541e-02  3.58032540e-02  4.48064964e-02  4.48064976e-02  1.83147165e+00  1.83147165e+00 -2.28123432e+00 -2.28123431e+00 
-1.954887218045113 0.6804325795212823 0.6534836049661297 5.974942105858651e-38 5.974942105858645e-38 3.40974823445688e-56	-1.96000000  0.68375576   7.14080931e-01  7.14080931e-01 -8.21800916e-01 -8.21800915e-01  4.16673034e-02  4.16673034e-02  4.08747736e-02  4.08747740e-02  1.90381204e+00  1.90381204e+00 -2.14976789e+00 -2.14976789e+00 
-1.9348370927318297 0.6670650818833023 0.7466370869394473 6.262790385979202e-38 6.262790385979203e-38 3.278806597658145e-56	-1.94000000  0.67055588   7.47695530e-01  7.47695530e-01 -7.90827490e-01 -7.90827495e-01  4.56076506e-02  4.56076520e-02  5.33970845e-02  5.33970629e-02  1.98686759e+00  1.98686760e+00 -2.01930246e+00 -2.01930256e+00 
-1.9147869674185465 0.6531808504255747 0.8767182842382217 6.565263466203536e-38 6.565263466203527e-38 3.0685546375858457e-56	-1.92000000  0.65684328   7.83535868e-01  7.83535869e-01 -7.43889862e-01 -7.43889886e-01  4.82942265e-02  4.82942305e-02  7.80278402e-02  7.80277658e-02  2.07862372e+00  2.07862374e+00 -1.86251851e+00 -1.86251887e+00 
-1.8947368421052633 0.6386991420282112 1.0701981378172873 6.878984082793962e-38 6.878984082793938e-38 2.7597772127825306e-56	-1.90000000  0.64256561   8.20957555e-01  8.20957553e-01 -6.74759831e-01 -6.74759819e-01  5.05215538e-02  5.05215553e-02  1.11499718e-01  1.11499660e-01  2.17696571e+00  2.17696573e+00 -1.65075724e+00 -1.65075769e+00 
-1.87468671679198 0.6234687644644086 1.390708183392407 7.205183004925324e-38 7.205183004925341e-38 2.3299340485609164e-56	-1.88000000  0.62758918   8.59899993e-01  8.59899973e-01 -5.77795642e-01 -5.77795348e-01  5.27705567e-02  5.27705428e-02  1.53822738e-01  1.53822868e-01  2.28079606e+00  2.28079605e+00 -1.36002354e+00 -1.36002359e+00 
-1.8546365914786969 0.607245308330407 2.03688418763246 7.547315370512635e-38 7.547315370512643e-38 1.745453425659334e-56	-1.86000000  0.61170318   9.00670071e-01  9.00670016e-01 -4.45471522e-01 -4.45470664e-01  5.53291448e-02  5.53291015e-02  2.07103461e-01  2.07103913e-01  2.38968981e+00  2.38968973e+00 -9.70340067e-01 -9.70339341e-01 
-1.8345864661654137 0.5895429841215184 4.076397043577432 7.908876983844485e-38 7.90887698384448e-38 9.577292894882231e-57	-1.84000000  0.59451274   9.43589320e-01  9.43589215e-01 -2.68281147e-01 -2.68279505e-01  5.80907619e-02  5.80906988e-02  2.70815101e-01  2.70815616e-01  2.50278360e+00  2.50278351e+00 -4.74907300e-01 -4.74906879e-01 
-1.8145363408521304 0.5694321777512967 -49.7549718940108 8.291352955331211e-38 8.29135295533124e-38 -8.623904273344975e-58	-1.82000000  0.57521002   9.88689813e-01  9.88689616e-01 -3.80692000e-02 -3.80661853e-02  6.00687786e-02  6.00688387e-02  3.30621843e-01  3.30620493e-01  2.61743969e+00  2.61744000e+00  9.44635571e-02  9.44576043e-02 
-1.7944862155388472 0.5469007534309627 -3.5115868254067903 8.684371222747292e-38 8.684371222747302e-38 -1.3404880736114846e-56	-1.80000000  0.55316318   1.03514788e+00  1.03514744e+00  2.40450141e-01  2.40456481e-01  5.99456914e-02  5.99462746e-02  3.63510281e-01  3.63502592e-01  2.73057846e+00  2.73058051e+00  6.89914983e-01  6.89887115e-01 
-1.774436090225564 0.5257035417971194 -1.9870590322487292 9.060780356848525e-38 9.060780356848568e-38 -2.5787547581622397e-56	-1.78000000  0.53126269   1.08060103e+00  1.08060003e+00  5.31181265e-01  5.31194134e-01  5.73360058e-02  5.73372259e-02  3.60173755e-01  3.60160022e-01  2.84134482e+00  2.84134974e+00  1.31162980e+00  1.31157210e+00 
-1.7543859649122808 0.5074934279079084 -1.5120631242258036 9.401179646381777e-38 9.401179646381779e-38 -3.6482482894415065e-56	-1.76000000  0.51234669   1.12265086e+00  1.12264949e+00  7.95825784e-01  7.95840617e-01  5.29348129e-02  5.29348227e-02  3.28278177e-01  3.28280411e-01  2.94892140e+00  2.94892402e+00  1.96002363e+00  1.96000248e+00 
-1.7343358395989976 0.49127847367760213 -1.2882813042386998 9.70602852098406e-38 9.70602852098402e-38 -4.564172272348143e-56	-1.74000000  0.49570841   1.16063579e+00  1.16063666e+00  1.02639715e+00  1.02638292e+00  4.80487675e-02  4.80451492e-02  2.88941125e-01  2.88980938e-01  3.05048985e+00  3.05047827e+00  2.58573187e+00  2.58586776e+00 
-1.7142857142857144 0.4763480666096588 -1.156926424318348 9.982797530567148e-38 9.982797530567167e-38 -5.376360622495783e-56	-1.72000000  0.48049760   1.19505640e+00  1.19506251e+00  1.22948207e+00  1.22941306e+00  4.36570800e-02  4.36557168e-02  2.56476918e-01  2.56484889e-01  3.14402960e+00  3.14401526e+00  3.15236574e+00  3.15250953e+00 
-1.6942355889724312 0.46235106159185557 -1.0695882054752548 1.0236583127461803e-37 1.0236583127461784e-37 -6.114810970588168e-56	-1.70000000  0.46629284   1.22654530e+00  1.22654795e+00  1.41253291e+00  1.41251323e+00  4.00656687e-02  4.00755474e-02  2.32753784e-01  2.32648654e-01  3.22961581e+00  3.22963636e+00  3.66037272e+00  3.66015373e+00 
-1.674185463659148 0.449075560131716 -1.0069257312774458 1.0470881872485968e-37 1.0470881872485964e-37 -6.796083206167536e-56	-1.68000000  0.45285875   1.25555168e+00  1.25553683e+00  1.58013337e+00  1.58029198e+00  3.71438344e-02  3.71453398e-02  2.15121691e-01  2.15117272e-01  3.30827152e+00  3.30828717e+00  4.12072223e+00  4.12057951e+00 
-1.6541353383458648 0.43638757750728396 -0.9593360199383605 1.0690060687583816e-37 1.0690060687583797e-37 -7.434969590469535e-56	-1.66000000  0.44004399   1.28253884e+00  1.28253481e+00  1.73633964e+00  1.73636451e+00  3.46563277e-02  3.46347732e-02  2.00930339e-01  2.01142906e-01  3.38115481e+00  3.38111104e+00  4.54466650e+00  4.54507080e+00 
-1.6340852130325816 0.4242122941372669 -0.9218741960311956 1.0896719024109818e-37 1.089671902410985e-37 -8.039137420991043e-56	-1.64000000  0.42775657   1.30789118e+00  1.30792414e+00  1.88407460e+00  1.88375373e+00  3.25192204e-02  3.25306994e-02  1.89717540e-01  1.89594226e-01  3.44916348e+00  3.44919381e+00  4.94182176e+00  4.94151789e+00 
-1.6140350877192984 0.4124800941353628 -0.8914738317765399 1.109073816700014e-37 1.1090738167000123e-37 -8.611958171043772e-56	-1.62000000  0.41592685   1.33177595e+00  1.33175867e+00  2.02347663e+00  2.02367287e+00  3.07144437e-02  3.07399836e-02  1.80653073e-01  1.80421096e-01  3.51305361e+00  3.51308303e+00  5.31624604e+00  5.31603904e+00 
-1.5939849624060152 0.4011184670911878 -0.8660831630099142 1.1274042754942343e-37 1.1274042754942335e-37 -9.159871167047206e-56	-1.60000000  0.40448973   1.35430182e+00  1.35426068e+00  2.15602239e+00  2.15639375e+00  2.91116747e-02  2.90685336e-02  1.72158417e-01  1.72553406e-01  3.57337397e+00  3.57325990e+00  5.67103012e+00  5.67198799e+00 
-1.573934837092732 0.39010362492163053 -0.844899565286603 1.1449820468240472e-37 1.1449820468240512e-37 -9.684604143257812e-56	-1.58000000  0.39340358   1.37567996e+00  1.37575954e+00  2.28419145e+00  2.28347657e+00  2.75924556e-02  2.76081110e-02  1.65039470e-01  1.64875022e-01  3.63036861e+00  3.63051313e+00  6.01208451e+00  6.01069420e+00 
-1.5538847117794488 0.379412076587773 -0.8264881492769288 1.1616167928862129e-37 1.1616167928862137e-37 -1.0190106877055256e-55	-1.56000000  0.38264021   1.39613644e+00  1.39609692e+00  2.40634418e+00  2.40676897e+00  2.62967887e-02  2.63264231e-02  1.59090703e-01  1.58795609e-01  3.68475103e+00  3.68469819e+00  6.33746411e+00  6.33791462e+00 
-1.5338345864661656 0.3689816197290253 -0.8102806597934974 1.1773655360693043e-37 1.1773655360693026e-37 -1.0677676799054653e-55	-1.54000000  0.37216195   1.41550686e+00  1.41544886e+00  2.52370849e+00  2.52421281e+00  2.51418780e-02  2.50806710e-02  1.53134155e-01  1.53631027e-01  3.73643735e+00  3.73625628e+00  6.65022793e+00  6.65150428e+00 
-1.5137844611528823 0.3588153291801931 -0.7966787373803372 1.1926915433691764e-37 1.192691543369177e-37 -1.1144553149977135e-55	-1.52000000  0.36194148   1.43394770e+00  1.43410245e+00  2.63846607e+00  2.63715722e+00  2.39276764e-02  2.39861402e-02  1.48033977e-01  1.47629392e-01  3.78544900e+00  3.78585616e+00  6.95483605e+00  6.95167822e+00 
-1.4937343358395991 0.34889679830232045 -0.7836679231370283 1.2071216146024219e-37 1.2071216146024235e-37 -1.1605385961305353e-55	-1.50000000  0.35196722   1.45189965e+00  1.45171633e+00  2.74778505e+00  2.74919266e+00  2.29581847e-02  2.29324973e-02  1.43170886e-01  1.43460507e-01  3.83305598e+00  3.83260503e+00  7.24414752e+00  7.24848472e+00 
-1.473684210526316 0.33917132602287037 -0.7726242921683191 1.2209639231122736e-37 1.2209639231122709e-37 -1.2042784387012607e-55	-1.48000000  0.34221584   1.46869331e+00  1.46879106e+00  2.85527958e+00  2.85424903e+00  2.20082910e-02  2.20062203e-02  1.39300972e-01  1.39202867e-01  3.87772919e+00  3.87804579e+00  7.53049703e+00  7.52781457e+00 
-1.4536340852130327 0.32967042535918323 -0.7628337802323177 1.2344369429151492e-37 1.2344369429151492e-37 -1.2468020581075698e-55	-1.46000000  0.33266524   1.48498106e+00  1.48502833e+00  2.95818069e+00  2.95805966e+00  2.10631830e-02  2.10667604e-02  1.34944275e-01  1.34629102e-01  3.92108137e+00  3.92108672e+00  7.80392332e+00  7.80312639e+00 
-1.4335839598997495 0.32034690353123185 -0.7525644926732217 1.2470471753976036e-37 1.2470471753976036e-37 -1.2897681514692433e-55	-1.44000000  0.32331123   1.50077864e+00  1.50058944e+00  3.05850157e+00  3.06040697e+00  2.02355129e-02  2.02168191e-02  1.30904411e-01  1.31306203e-01  3.96284889e+00  3.96236577e+00  8.06933102e+00  8.07308357e+00 
-1.4135338345864663 0.3112112379760307 -0.7452323072545337 1.2595746559348475e-37 1.259574655934851e-37 -1.3287575929726283e-55	-1.42000000  0.31413953   1.51547676e+00  1.51581509e+00  3.15848748e+00  3.15552223e+00  1.94258843e-02  1.94965336e-02  1.27982534e-01  1.28015245e-01  4.00189180e+00  4.00282612e+00  8.33337296e+00  8.32742503e+00 
-1.393483709273183 0.30223585033444555 -0.736447301620489 1.2710481567682717e-37 1.271048156768272e-37 -1.3692159241110628e-55	-1.40000000  0.30513054   1.53025988e+00  1.52978672e+00  3.25050654e+00  3.25330763e+00  1.87211669e-02  1.86124541e-02  1.24270701e-01  1.24247390e-01  4.04113438e+00  4.03993915e+00  8.57852574e+00  8.58619929e+00 
-1.3734335839599 0.29339993377966334 -0.7297319050154397 1.2827200174360828e-37 1.2827200174360828e-37 -1.4073107848748367e-55	-1.38000000  0.29628352   1.54369257e+00  1.54419162e+00  3.34690226e+00  3.34430743e+00  1.78950266e-02  1.79991962e-02  1.21581909e-01  1.20612762e-01  4.07675108e+00  4.07796635e+00  8.83394247e+00  8.82508757e+00 
-1.3533834586466167 0.284758922598074 -0.7225278788509046 1.2934836685811281e-37 1.2934836685811281e-37 -1.44529631917023e-55	-1.36000000  0.28759023   1.55742907e+00  1.55705323e+00  3.43439140e+00  3.43754881e+00  1.73604312e-02  1.72469045e-02  1.17616318e-01  1.19670824e-01  4.11316873e+00  4.11214273e+00  9.06455129e+00  9.07408250e+00 
-1.3333333333333335 0.2762006324872276 -0.7163438482735512 1.3039025704005904e-37 1.3039025704005864e-37 -1.4813522911132574e-55	-1.34000000  0.27903265   1.56991994e+00  1.57011365e+00  3.52559478e+00  3.52202023e+00  1.65197347e-02  1.67158994e-02  1.16526528e-01  1.14305503e-01  4.14619995e+00  4.14695137e+00  9.30713437e+00  9.29804282e+00 
-1.3132832080200503 0.26782042728669897 -0.7105481833427353 1.314262503415206e-37 1.3142625034152083e-37 -1.5172610451768943e-55	-1.32000000  0.27061178   1.58246244e+00  1.58238467e+00  3.60982743e+00  3.61227401e+00  1.61522966e-02  1.58214946e-02  1.11794958e-01  1.13438893e-01  4.17965831e+00  4.17909171e+00  9.52939763e+00  9.53559173e+00 
-1.293233082706767 0.2595372889397458 -0.7039783232363475 1.3237012843886784e-37 1.3237012843886807e-37 -1.5534965751384674e-55	-1.30000000  0.26232325   1.59425487e+00  1.59431177e+00  3.69511017e+00  3.69542318e+00  1.52106354e-02  1.56552203e-02  1.11269420e-01  1.09991705e-01  4.21055746e+00  4.21110270e+00  9.75611824e+00  9.75546926e+00 
-1.2731829573934839 0.25140508529446415 -0.7001131803261438 1.3333826130680767e-37 1.3333826130680813e-37 -1.585006063656787e-55	-1.28000000  0.25415022   1.60569229e+00  1.60564493e+00  3.77868550e+00  3.77539134e+00  1.50752258e-02  1.45825336e-02  1.06906035e-01  1.08623199e-01  4.24133961e+00  4.24077097e+00  9.97565396e+00  9.97035127e+00 
-1.2531328320802007 0.24333705108183068 -0.6930658044617043 1.341974745647664e-37 1.3419747456476626e-37 -1.6218243656192709e-55	-1.26000000  0.24609495   1.61678173e+00  1.61672346e+00  3.85628205e+00  3.86112670e+00  1.40233426e-02  1.45134398e-02  1.06635422e-01  1.03865612e-01  4.27013061e+00  4.27055412e+00  1.01839008e+01  1.01921979e+01 
-1.2330827067669174 0.23545346279915336 -0.6900576625796707 1.3513721224603488e-37 1.3513721224603532e-37 -1.6517873457900182e-55	-1.24000000  0.23815535   1.62719160e+00  1.62749121e+00  3.93964033e+00  3.93534697e+00  1.40242930e-02  1.35415821e-02  1.01674485e-01  1.05549581e-01  4.29841128e+00  4.29842070e+00  1.04000815e+01  1.03936849e+01 
-1.2130325814536342 0.227591306305313 -0.6836265818940561 1.358675239251595e-37 1.3586752392515897e-37 -1.6853961074831095e-55	-1.22000000  0.23031550   1.63781256e+00  1.63718765e+00  4.01284948e+00  4.01506374e+00  1.29884475e-02  1.34942677e-02  1.03320970e-01  9.86573787e-02  4.32570734e+00  4.32505494e+00  1.05997847e+01  1.06002081e+01 
-1.192982456140351 0.21989956258163834 -0.6806967262426825 1.368079467414849e-37 1.3680794674148454e-37 -1.7161632359734723e-55	-1.20000000  0.22257904   1.64694535e+00  1.64787524e+00  4.09065440e+00  4.09079554e+00  1.30232585e-02  1.24560556e-02  9.61528402e-02  1.01305286e-01  4.35091547e+00  4.35219375e+00  1.07986258e+01  1.08053842e+01 
-1.1729323308270678 0.21226443531444072 -0.6745834522878789 1.374389482272554e-37 1.3743894822725515e-37 -1.7477268916843518e-55	-1.18000000  0.21494477   1.65741647e+00  1.65630188e+00  4.16540556e+00  4.16379296e+00  1.19799662e-02  1.26360463e-02  1.00150452e-01  9.45587470e-02  4.37742561e+00  4.37578358e+00  1.10038503e+01  1.09918223e+01 
-1.1528822055137846 0.20473263647648654 -0.672481419619638 1.3832037662611301e-37 1.3832037662611328e-37 -1.7757492600513164e-55	-1.16000000  0.20739752   1.66536240e+00  1.66648336e+00  4.23555591e+00  4.23716645e+00  1.21946004e-02  1.14345318e-02  9.17729732e-02  9.79875949e-02  4.39986093e+00  4.40145483e+00  1.11816803e+01  1.11951438e+01 
-1.1328320802005014 0.19729467320840433 -0.6658540840905595 1.3892533969943995e-37 1.3892533969944057e-37 -1.809145403757383e-55	-1.14000000  0.19994258   1.67524910e+00  1.67430870e+00  4.30886212e+00  4.30866699e+00  1.09265427e-02  1.18017649e-02  9.64185775e-02  8.93295082e-02  4.42459781e+00  4.42347685e+00  1.13842128e+01  1.13733968e+01 
-1.1127819548872182 0.18994205851220025 -0.6646885176321863 1.397070261386359e-37 1.397070261386362e-37 -1.8327698257991817e-55	-1.12000000  0.19257856   1.68289244e+00  1.68349246e+00  4.37913824e+00  4.37702905e+00  1.14775934e-02  1.04722487e-02  8.76322635e-02  9.57469140e-02  4.44618706e+00  4.44651000e+00  1.15600964e+01  1.15652527e+01 
-1.092731829573935 0.18265501674693385 -0.6579967904218578 1.4030299336640593e-37 1.40302993366405e-37 -1.8672381185800963e-55	-1.10000000  0.18529122   1.69134108e+00  1.69119944e+00  4.44336259e+00  4.44796438e+00  9.94169816e-03  1.10966762e-02  9.38376945e-02  8.47437284e-02  4.46745567e+00  4.46809961e+00  1.17410751e+01  1.17429614e+01 
-1.0726817042606518 0.17548896097049582 -0.6568891904166484 1.4098832647596192e-37 1.4098832647596098e-37 -1.8887035733781257e-55	-1.08000000  0.17808769   1.69936668e+00  1.69897118e+00  4.51743434e+00  4.51078113e+00  1.07761779e-02  9.45444739e-03  8.26564138e-02  9.24612126e-02  4.48943308e+00  4.48781219e+00  1.19263115e+01  1.19174775e+01 
-1.0526315789473686 0.16833417096539782 -0.6508614339258721 1.4158749188873886e-37 1.4158749188874002e-37 -1.922431371148382e-55	-1.06000000  0.17096516   1.70614233e+00  1.70712441e+00  4.57522655e+00  4.58304853e+00  9.01323976e-03  1.05043317e-02  9.15099058e-02  8.14578102e-02  4.50718947e+00  4.50966722e+00  1.20872234e+01  1.21019125e+01 
-1.0325814536340854 0.161345166379818 -0.6491868417735193 1.4215183590164587e-37 1.4215183590164602e-37 -1.9427854561925332e-55	-1.04000000  0.16391075   1.71461792e+00  1.71301979e+00  4.64696975e+00  4.63906464e+00  1.01516035e-02  8.51619758e-03  7.92783849e-02  8.89577715e-02  4.52904098e+00  4.52591599e+00  1.22733970e+01  1.22543585e+01 
-1.0125313283208022 0.15430943572932698 -0.6443970743610145 1.4279417892913322e-37 1.427941789291338e-37 -1.9749543128713003e-55	-1.02000000  0.15693351   1.71972451e+00  1.72195188e+00  4.70429668e+00  4.71125531e+00  8.11499149e-03  9.83168551e-03  8.69724554e-02  7.84149159e-02  4.54424187e+00  4.54775595e+00  1.24230244e+01  1.24450433e+01 
-0.992481203007519 0.14749002142427559 -0.6412638172010943 1.43209359758174e-37 1.4320935975817493e-37 -1.9961615073594393e-55	-1.00000000  0.15002827   1.72885103e+00  1.72600366e+00  4.77134045e+00  4.76611235e+00  9.48639981e-03  7.79428722e-03  7.83394768e-02  8.49309312e-02  4.56530852e+00  4.56168017e+00  1.26081186e+01  1.25841058e+01 
-0.9724310776942358 0.14056982826297404 -0.6387999017221588 1.4391326192836338e-37 1.4391326192836353e-37 -2.023608055615532e-55	-0.98000000  0.14318446   1.73209115e+00  1.73551301e+00  4.82779962e+00  4.83091295e+00  7.48132562e-03  9.00384898e-03  8.11660329e-02  7.74453797e-02  4.57863599e+00  4.58211607e+00  1.27437948e+01  1.27692664e+01 
-0.9523809523809526 0.13389168833145126 -0.6331796088112295 1.441771940444483e-37 1.4417719404444848e-37 -2.049065420045526e-55	-0.96000000  0.13641263   1.74195263e+00  1.73805511e+00  4.89113734e+00  4.88997300e+00  8.51319304e-03  7.33050979e-03  7.82419790e-02  7.81921617e-02  4.59829433e+00  4.59518123e+00  1.29308475e+01  1.29040223e+01 
-0.9323308270676693 0.1271103373172433 -0.6334302017017598 1.4494585525264582e-37 1.4494585525264577e-37 -2.0701529893258322e-55	-0.94000000  0.12970444   1.74368237e+00  1.74788614e+00  4.94766865e+00  4.94763069e+00  7.26729609e-03  7.93932489e-03  7.47708452e-02  7.93631254e-02  4.61079441e+00  4.61339581e+00  1.30554007e+01  1.30835982e+01 
-0.9122807017543861 0.12053167874313875 -0.6258315992693648 1.450653405104115e-37 1.4506534051041133e-37 -2.098743877330255e-55	-0.92000000  0.12305283   1.75354965e+00  1.74928676e+00  5.00549831e+00  5.00541081e+00  7.24510132e-03  7.21949812e-03  7.96458798e-02  7.00063125e-02  4.62802035e+00  4.62596640e+00  1.32368197e+01  1.32073410e+01 
-0.8922305764411029 0.11390716969728787 -0.6273102130266341 1.458738100795242e-37 1.4587381007952424e-37 -2.1172000762380656e-55	-0.90000000  0.11646853   1.75484528e+00  1.75885261e+00  5.06206933e+00  5.06411996e+00  7.28750622e-03  6.60695738e-03  6.66976411e-02  8.14252426e-02  4.64052783e+00  4.64213698e+00  1.33586310e+01  1.33889874e+01 
-0.8721804511278197 0.10741003468984345 -0.6198338326923802 1.4592322367527253e-37 1.4592322367527253e-37 -2.144189471037838e-55	-0.88000000  0.10993985   1.76358256e+00  1.76018206e+00  5.11970575e+00  5.11361229e+00  5.97100174e-03  7.30158355e-03  8.23092117e-02  6.30973710e-02  4.65542695e+00  4.65401464e+00  1.35316460e+01  1.35013963e+01 
-0.8521303258145365 0.100932939417258 -0.6200862619549856 1.4664224849606669e-37 1.4664224849606719e-37 -2.1644906737911304e-55	-0.86000000  0.10346437   1.76559916e+00  1.76806425e+00  5.16589880e+00  5.17808300e+00  7.18595593e-03  5.40498223e-03  5.94745076e-02  8.18233268e-02  4.66700275e+00  4.66859241e+00  1.36477380e+01  1.36764456e+01 
-0.8320802005012533 0.0945213379029235 -0.6152253534531774 1.467999302402141e-37 1.4679993024021424e-37 -2.1862865359266133e-55	-0.84000000  0.09705127   1.77217919e+00  1.77087721e+00  5.23589032e+00  5.21603307e+00  5.09558748e-03  6.98363990e-03  8.18138936e-02  5.84584969e-02  4.68132178e+00  4.67912202e+00  1.38171588e+01  1.37917365e+01 
-0.8120300751879701 0.08816894373701945 -0.6118420270139585 1.472483636456552e-37 1.472483636456554e-37 -2.211827511352912e-55	-0.82000000  0.09068655   1.77583090e+00  1.77592845e+00  5.26233475e+00  5.29051466e+00  6.50282008e-03  4.95894626e-03  5.76745434e-02  7.93216367e-02  4.69020116e+00  4.69339138e+00  1.39286205e+01  1.39490917e+01 
-0.7919799498746869 0.08185952278903463 -0.6116325232904583 1.4765127690029308e-37 1.4765127690029314e-37 -2.22471021925588e-55	-0.80000000  0.08437365   1.77974778e+00  1.78063620e+00  5.34737451e+00  5.31144960e+00  5.06247852e-03  5.78381426e-03  7.52625248e-02  5.82934659e-02  4.70534489e+00  4.70097368e+00  1.40853161e+01  1.40707581e+01 
-0.7719298245614037 0.07559440040913501 -0.6034606498151971 1.4779537726895909e-37 1.4779537726895932e-37 -2.2592399085565853e-55	-0.78000000  0.07811815   1.78487732e+00  1.78350699e+00  5.35874244e+00  5.40033986e+00  4.94172916e-03  5.42994898e-03  6.15947124e-02  7.11617791e-02  4.71103952e+00  4.71645259e+00  1.42064923e+01  1.42152306e+01 
-0.7518796992481205 0.0694228242452829 -0.6074912537738546 1.4835017971809735e-37 1.4835017971809818e-37 -2.2611310311192016e-55	-0.76000000  0.07190558   1.78737574e+00  1.78847835e+00  5.44941364e+00  5.40551162e+00  5.80875248e-03  3.94970681e-03  6.46127874e-02  6.43020779e-02  4.72661477e+00  4.72070723e+00  1.43405611e+01  1.43360777e+01 
-0.7318295739348373 0.0632012644611083 -0.5970044649644121 1.4842097355659429e-37 1.4842097355659502e-37 -2.303045822756337e-55	-0.74000000  0.06574435   1.79161063e+00  1.79164118e+00  5.45704681e+00  5.49902239e+00  3.08674082e-03  6.13301014e-03  6.79270997e-02  5.84419818e-02  4.73067148e+00  4.73613950e+00  1.44694161e+01  1.44724608e+01 
-0.7117794486215541 0.05718376561517635 -0.6006302688607924 1.4878914370932848e-37 1.48789143709328e-37 -2.3005139985939845e-55	-0.72000000  0.05963370   1.79592625e+00  1.79399077e+00  5.54223190e+00  5.50650757e+00  6.20759464e-03  2.55536842e-03  5.36003122e-02  7.17530124e-02  4.74421369e+00  4.74033860e+00  1.45965323e+01  1.45914717e+01 
-0.6917293233082709 0.051013313699427854 -0.5937414342997916 1.4917925385608803e-37 1.4917925385608728e-37 -2.339424911778641e-55	-0.70000000  0.05356143   1.79599507e+00  1.80026311e+00  5.55736902e+00  5.58345123e+00  2.41846271e-03  5.74438558e-03  7.26924329e-02  4.84992271e-02  4.75009327e+00  4.75130932e+00  1.47107685e+01  1.47209140e+01 
-0.6716791979949877 0.045088507026686764 -0.5912139488987586 1.490023399979854e-37 1.490023399979858e-37 -2.3438570010020177e-55	-0.68000000  0.04753972   1.80445339e+00  1.79800166e+00  5.62553311e+00  5.61080809e+00  4.79162216e-03  2.90178216e-03  4.65475762e-02  7.31574369e-02  4.75784634e+00  4.75988635e+00  1.48495153e+01  1.48329482e+01 
-0.6516290726817044 0.03905545637984309 -0.5917708474891858 1.499371540745108e-37 1.4993715407451038e-37 -2.3711256375330262e-55	-0.66000000  0.04156185   1.80005277e+00  1.80784545e+00  5.65893438e+00  5.66288050e+00  3.88918670e-03  3.33682295e-03  7.16916031e-02  4.63943358e-02  4.76864085e+00  4.76356727e+00  1.49444958e+01  1.49662453e+01 
-0.6315789473684212 0.03311626126389533 -0.5827008687614559 1.4923635690019375e-37 1.4923635690019486e-37 -2.3855757862625922e-55	-0.64000000  0.03562176   1.81044225e+00  1.80278502e+00  5.70333262e+00  5.70758461e+00  1.54586035e-03  5.11450830e-03  4.64095047e-02  6.76319225e-02  4.76967599e+00  4.77658252e+00  1.50843959e+01  1.50616070e+01 
-0.611528822055138 0.02730395915774586 -0.5871382261018823 1.5038745466948187e-37 1.50387454669482e-37 -2.404210378969007e-55	-0.62000000  0.02973126   1.80626658e+00  1.81196698e+00  5.75416440e+00  5.74554547e+00  6.35200858e-03 -9.22942716e-05  6.47057823e-02  4.86429032e-02  4.78309124e+00  4.77638268e+00  1.51809863e+01  1.51987950e+01 
-0.5914786967418548 0.02130731252632645 -0.5782993390407138 1.4979229431357854e-37 1.4979229431357802e-37 -2.421674985807577e-55	-0.60000000  0.02387716   1.81229967e+00  1.81024867e+00  5.78508229e+00  5.79442713e+00 -1.28483445e-03  7.06353622e-03  4.94392021e-02  6.13007360e-02  4.78344252e+00  4.78760017e+00  1.52995988e+01  1.52927312e+01 
-0.5714285714285716 0.015684766698418007 -0.5782884267352327 1.5034285860394216e-37 1.5034285860394239e-37 -2.439555555350951e-55	-0.58000000  0.01806058   1.81475094e+00  1.81213922e+00  5.83709176e+00  5.82899943e+00  6.91764115e-03 -1.65479457e-03  5.86913526e-02  4.87013792e-02  4.79110712e+00  4.79140695e+00  1.54132341e+01  1.54058955e+01 
-0.5513784461152884 0.009716936612991 -0.5769685001543402 1.5064610041034513e-37 1.5064610041034432e-37 -2.455010145287068e-55	-0.56000000  0.01228981   1.81178230e+00  1.81894100e+00  5.86989744e+00  5.87730510e+00 -9.58368443e-04  5.84167395e-03  4.82032004e-02  5.89234375e-02  4.79903134e+00  4.79361129e+00  1.55068308e+01  1.55267586e+01 
-0.5313283208020052 0.004141778845672683 -0.5687984237942804 1.5009427899385405e-37 1.5009427899385416e-37 -2.4720628034432844e-55	-0.54000000  0.00655108   1.82219236e+00  1.81188606e+00  5.91639010e+00  5.90653013e+00  3.82904819e-03  5.47006518e-04  5.81349333e-02  4.54950094e-02  4.79602654e+00  4.80548514e+00  1.56303581e+01  1.56050461e+01 
-0.511278195488722 -0.0016433691207891066 -0.5736540680969605 1.5130277230836609e-37 1.513027723083657e-37 -2.4907681277650698e-55	-0.52000000  0.00085328   1.81322290e+00  1.82424542e+00  5.94467596e+00  5.96114584e+00  2.54367951e-03  1.39693979e-03  4.40794888e-02  5.72658579e-02  4.81056314e+00  4.79980381e+00  1.57166542e+01  1.57361574e+01 
-0.4912280701754388 -0.007301826821266122 -0.5637761738902547 1.5022104692838144e-37 1.5022104692838075e-37 -2.4982992469741813e-55	-0.50000000 -0.00480438   1.82454755e+00  1.81560760e+00  6.00257620e+00  5.97645528e+00 -8.46118231e-04  4.42893804e-03  5.50756428e-02  4.55783509e-02  4.80457659e+00  4.81302974e+00  1.58249410e+01  1.58225247e+01 
-0.4711779448621556 -0.012842243906614037 -0.5649337969153915 1.5129798954946078e-37 1.5129798954946084e-37 -2.5290555206833438e-55	-0.48000000 -0.01043463   1.81901775e+00  1.82358823e+00  6.00886027e+00  6.04385502e+00  5.48684209e-03 -2.40856307e-03  4.84151422e-02  4.82805230e-02  4.81360488e+00  4.81062677e+00  1.59316586e+01  1.59106854e+01 
-0.4511278195488724 -0.01857298991650702 -0.5631896019205922 1.508761697161368e-37 1.5087616971613663e-37 -2.5227619881718742e-55	-0.46000000 -0.01602433   1.82210601e+00  1.82287291e+00  6.08418707e+00  6.04612280e+00 -2.77364771e-03  5.46662876e-03  4.04095826e-02  5.53688782e-02  4.81717616e+00  4.81330864e+00  1.60023599e+01  1.60438258e+01 
-0.43107769423558917 -0.023973055771787433 -0.554725836610568 1.5087951227681885e-37 1.5087951227681891e-37 -2.561366679241586e-55	-0.44000000 -0.02158039   1.82601806e+00  1.82064228e+00  6.08292059e+00  6.11361562e+00  4.29975608e-03 -2.00435546e-03  6.28065502e-02  3.13952185e-02  4.81272860e+00  4.82221174e+00  1.61362154e+01  1.60875208e+01 
-0.41102756892230596 -0.029623751015146693 -0.5604479814196819 1.5148818655087804e-37 1.5148818655087779e-37 -2.555711519136775e-55	-0.42000000 -0.02710623   1.82027598e+00  1.82807746e+00  6.14019493e+00  6.12874381e+00 -5.23822531e-04  2.35700017e-03  2.33830866e-02  6.70057835e-02  4.82541611e+00  4.81390405e+00  1.61892793e+01  1.62249303e+01 
-0.39097744360902276 -0.03503893903469035 -0.5500526562229137 1.5076372765075172e-37 1.5076372765075184e-37 -2.5791646860730925e-55	-0.40000000 -0.03259111   1.82856209e+00  1.82112571e+00  6.17803575e+00  6.16145616e+00  4.01861575e-04  1.12178983e-03  6.79145564e-02  2.22159424e-02  4.81695132e+00  4.82592159e+00  1.63010140e+01  1.62982156e+01 
-0.37092731829573955 -0.04050516763896739 -0.5508821396016611 1.5148857861302521e-37 1.5148857861302473e-37 -2.600103857149037e-55	-0.38000000 -0.03804996   1.82281984e+00  1.82761525e+00  6.17798560e+00  6.22347259e+00  2.15636672e-03 -1.06261547e-03  2.67115726e-02  6.06611654e-02  4.82395615e+00  4.82105517e+00  1.64020512e+01  1.63617951e+01 
-0.35087719298245634 -0.045966738727827305 -0.5504878905872108 1.5112035743869977e-37 1.5112035743869954e-37 -2.5893322504610897e-55	-0.36000000 -0.04347739   1.82631646e+00  1.82500554e+00  6.26846195e+00  6.20352843e+00 -1.62681443e-03  2.28876773e-03  4.71759068e-02  3.76480519e-02  4.82558396e+00  4.82170626e+00  1.64359580e+01  1.65129691e+01 
-0.33082706766917314 -0.05130611627802817 -0.5405367575712657 1.5118037455835476e-37 1.5118037455835453e-37 -2.6390961193248808e-55	-0.34000000 -0.04886751   1.82649338e+00  1.82515588e+00  6.23395366e+00  6.29984324e+00  1.68243858e-03 -1.32597160e-03  5.30447527e-02  3.16701591e-02  4.82006717e+00  4.82805955e+00  1.66022506e+01  1.65120945e+01 
-0.31077694235588993 -0.05671485249968389 -0.546895940475016 1.5133159557263179e-37 1.5133159557263127e-37 -2.6136301344254337e-55	-0.32000000 -0.05423423   1.82479401e+00  1.82685560e+00  6.31917166e+00  6.27432165e+00 -7.60766428e-04  6.96354556e-04  1.61515434e-02  6.46956018e-02  4.82772657e+00  4.82048402e+00  1.66020892e+01  1.66714541e+01 
-0.2907268170426067 -0.062018372483628736 -0.5377798814946421 1.5119692925090762e-37 1.5119692925090747e-37 -2.6532061602300454e-55	-0.30000000 -0.05956711   1.82630695e+00  1.82535084e+00  6.32690688e+00  6.33337683e+00  2.47383254e-05 -4.28650644e-04  7.05992884e-02  8.83000923e-03  4.82317083e+00  4.82513914e+00  1.67325176e+01  1.67149706e+01 
-0.2706766917293235 -0.06734727591112888 -0.5355039958541524 1.510874509896656e-37 1.5108745098966535e-37 -2.6606250698189465e-55	-0.28000000 -0.06487088   1.82585722e+00  1.82514055e+00  6.33896898e+00  6.37601641e+00 -7.29361697e-04 -2.87373992e-05  1.19822581e-02  6.65535448e-02  4.82093252e+00  4.82571535e+00  1.68204046e+01  1.67721777e+01 
-0.2506265664160403 -0.07258730488332432 -0.5389226170973584 1.5132804464715034e-37 1.5132804464715098e-37 -2.6521741456283664e-55	-0.26000000 -0.07015050   1.82456295e+00  1.82580611e+00  6.42212457e+00  6.35237020e+00  3.68116261e-04 -1.57382853e-03  5.14252914e-02  2.34572444e-02  4.82672066e+00  4.81807666e+00  1.68237107e+01  1.69256760e+01 
-0.2305764411027571 -0.07789358142775171 -0.5266425746175467 1.5103921028223981e-37 1.5103921028223981e-37 -2.7036660864069996e-55	-0.24000000 -0.07539215   1.82453072e+00  1.82498783e+00  6.37788796e+00  6.45633051e+00 -2.23649285e-03  7.72589562e-04  4.21067259e-02  3.25933714e-02  4.81802978e+00  4.82439927e+00  1.70134097e+01  1.68937818e+01 
-0.2105263157894739 -0.08303818497746795 -0.5321968834206652 1.508889411159573e-37 1.508889411159567e-37 -2.6701281228261375e-55	-0.22000000 -0.08061094   1.82597436e+00  1.82202226e+00  6.47089283e+00  6.41263283e+00  3.52752956e-04 -2.14725736e-03  1.40910595e-02  5.81763764e-02  4.81839403e+00  4.82029369e+00  1.69748018e+01  1.70649338e+01 
-0.1904761904761907 -0.08827858164095637 -0.5273593806497332 1.5143494653619267e-37 1.5143494653619242e-37 -2.7141581374917487e-55	-0.20000000 -0.08580677   1.81968519e+00  1.82692686e+00  6.46326681e+00  6.47924001e+00 -9.65432873e-04 -1.23556251e-03  6.59139069e-02  3.42986437e-03  4.82361379e+00  4.81159915e+00  1.71081456e+01  1.70857939e+01 
-0.17042606516290748 -0.09346730797798508 -0.5190630365137379 1.5031923729758603e-37 1.5031923729758595e-37 -2.7170562549981605e-55	-0.18000000 -0.09097035   1.82626283e+00  1.81855088e+00  6.48078359e+00  6.51318176e+00 -3.53178965e-03  1.01728671e-03  6.20318718e-03  6.33277344e-02  4.80640686e+00  4.82395932e+00  1.71937422e+01  1.71364275e+01 
-0.15037593984962427 -0.09849672508169527 -0.527367594789016 1.512496236262386e-37 1.512496236262389e-37 -2.707476971149544e-55	-0.16000000 -0.09611188   1.81948108e+00  1.82323926e+00  6.55443592e+00  6.48699093e+00  2.66326135e-03 -5.56214398e-03  4.80431870e-02  1.79617400e-02  4.81900101e+00  4.80558890e+00  1.71706519e+01  1.72857524e+01 
-0.13032581453634107 -0.10378450222602953 -0.5143880539059199 1.5074814292464469e-37 1.50748142924645e-37 -2.7574184283293823e-55	-0.14000000 -0.10122135   1.81840337e+00  1.82225732e+00  6.51117954e+00  6.58625073e+00 -5.97992815e-03  2.82036859e-03  3.61597011e-02  2.83210697e-02  4.80985218e+00  4.80925284e+00  1.73638540e+01  1.72383112e+01 
-0.11027568922305786 -0.10869803318097837 -0.5154278208481298 1.500087002069904e-37 1.5000870020698986e-37 -2.724925580131938e-55	-0.12000000 -0.10630592   1.82482499e+00  1.81305071e+00  6.59660921e+00  6.54426798e+00  7.30439350e-04 -4.16381725e-03  1.14699471e-02  5.25299007e-02  4.79684326e+00  4.81527148e+00  1.73177065e+01  1.74008341e+01 
-0.09022556390977465 -0.1138419286265846 -0.5184640174215551 1.5147803742934943e-37 1.5147803742934897e-37 -2.7622967021549224e-55	-0.10000000 -0.11137483   1.80981715e+00  1.82529530e+00  6.58945856e+00  6.59897165e+00 -6.49260428e-04 -3.23052873e-03  5.83216973e-02  2.01994793e-03  4.81750850e+00  4.78740603e+00  1.74256893e+01  1.74193947e+01 
-0.07017543859649145 -0.11895848830587319 -0.5031966508798923 1.4942461652151804e-37 1.4942461652151873e-37 -2.7694668063345663e-55	-0.08000000 -0.11641079   1.82202343e+00  1.81027409e+00  6.60144390e+00  6.63641662e+00 -7.26223462e-03  3.10551284e-03  6.04497364e-03  5.39559652e-02  4.78508413e+00  4.81212389e+00  1.75232100e+01  1.74520671e+01 
-0.05012531328320824 -0.12375033256529466 -0.513556174527949 1.505806875197017e-37 1.5058068751970178e-37 -2.7557524521420686e-55	-0.06000000 -0.12142338   1.81393843e+00  1.81491382e+00  6.66914295e+00  6.60698114e+00  4.91358823e-03 -9.34370931e-03  3.91859036e-02  1.85612398e-02  4.79788471e+00  4.79015654e+00  1.74809490e+01  1.75959032e+01 
-0.030075187969925032 -0.1290172819247486 -0.5051911422249817 1.5057842950501015e-37 1.5057842950501008e-37 -2.801298608321738e-55	-0.04000000 -0.12641459   1.80661163e+00  1.81888330e+00  6.63142165e+00  6.69302046e+00 -8.06157821e-03  3.29979363e-03  3.40431453e-02  2.08714490e-02  4.79956088e+00  4.77973375e+00  1.76544663e+01  1.75472578e+01 
-0.010025062656641825 -0.13378807671756188 -0.49693906546154587 1.4867477866274082e-37 1.4867477866274105e-37 -2.77626596245097e-55	-0.02000000 -0.13137817   1.82139338e+00  1.80033408e+00  6.70025787e+00  6.66509960e+00 -1.47140929e-03 -3.55964146e-03  8.42013272e-03  4.71696998e-02  4.76422107e+00  4.80525788e+00  1.76288478e+01  1.76824064e+01 
0.010025062656641381 -0.1387368187711977 -0.508975258931458 1.511299204173026e-37 1.5112992041730256e-37 -2.8008757379770193e-55	 0.00000000 -0.13632584   1.79895762e+00  1.81871692e+00  6.70240972e+00  6.69859519e+00  2.04336132e-03 -7.44217580e-03  4.90901583e-02  3.06132962e-03  4.80055592e+00  4.75817861e+00  1.76946811e+01  1.77140705e+01 
0.030075187969924144 -0.14387317051397486 -0.49067171219385575 1.4876307297992562e-37 1.4876307297992548e-37 -2.8150678511406933e-55	 0.02000000 -0.14124629   1.81066333e+00  1.80307403e+00  6.70448475e+00  6.74219583e+00 -1.14990884e-02  5.84087629e-03  8.42098845e-03  4.17145020e-02  4.76420317e+00  4.78403041e+00  1.78026576e+01  1.77243705e+01 
0.050125313283207795 -0.14843414267519983 -0.4956275566383588 1.4908433299224462e-37 1.4908433299224418e-37 -2.7989695549537584e-55	 0.04000000 -0.14614260   1.80962030e+00  1.79952310e+00  6.76624265e+00  6.71396972e+00  5.39936206e-03 -1.13054990e-02  2.88123939e-02  2.10047525e-02  4.75959019e+00  4.77661607e+00  1.77581833e+01  1.78563337e+01 
0.07017543859649145 -0.1536055785450905 -0.49852771313322247 1.5051188873925667e-37 1.5051188873925692e-37 -2.836233039346973e-55	 0.06000000 -0.15102385   1.79026558e+00  1.81429411e+00  6.73694019e+00  6.78015095e+00 -6.64619806e-03  3.50169472e-04  3.25670879e-02  1.40243816e-02  4.78633938e+00  4.73770679e+00  1.78929544e+01  1.78189441e+01 
0.09022556390977421 -0.15837787715210916 -0.47972160286073057 1.472583601795737e-37 1.4725836017957415e-37 -2.8213713387239675e-55	 0.08000000 -0.15587555   1.81291438e+00  1.78699601e+00  6.78634243e+00  6.76971340e+00 -6.89156784e-03  3.86697256e-04  6.08955085e-03  4.04378095e-02  4.72792499e+00  4.78375068e+00  1.78979320e+01  1.79184410e+01 
0.11027568922305697 -0.16302730036548274 -0.4951276591536655 1.499317705912246e-37 1.499317705912246e-37 -2.8337384166497625e-55	 0.10000000 -0.16070980   1.79055086e+00  1.80405273e+00  6.79874716e+00  6.78455204e+00  5.89411942e-03 -1.26465889e-02  3.91251098e-02  5.07399755e-03  4.76473623e+00  4.73316576e+00  1.79273301e+01  1.79634309e+01 
0.13032581453634062 -0.16821185039054432 -0.4833649336082828 1.486177375299593e-37 1.4861773752995856e-37 -2.8520409488059748e-55	 0.12000000 -0.16552803   1.79103022e+00  1.79843454e+00  6.79278857e+00  6.82866575e+00 -1.36691151e-02  6.54205606e-03  1.08698645e-02  3.00913019e-02  4.74877224e+00  4.73560578e+00  1.80296861e+01  1.79580116e+01 
0.15037593984962427 -0.17265421232318845 -0.4750350242307796 1.4694023714928997e-37 1.4694023714928961e-37 -2.836909279482075e-55	 0.14000000 -0.17031805   1.80475577e+00  1.77930769e+00  6.84655558e+00  6.80641164e+00  1.65066199e-03 -9.02963331e-03  1.98056344e-02  2.21305520e-02  4.70796526e+00  4.76185823e+00  1.79982617e+01  1.80718616e+01 
0.17042606516290704 -0.17756692910014227 -0.4903028682883059 1.5000866174694013e-37 1.5000866174694004e-37 -2.8645594884159027e-55	 0.16000000 -0.17509092   1.77416591e+00  1.80413677e+00  6.82544785e+00  6.85250360e+00 -1.16133356e-03 -6.46375551e-03  2.99952242e-02  8.99033105e-03  4.76028597e+00  4.69423244e+00  1.80923668e+01  1.80473529e+01 
0.1904761904761898 -0.18247972484167274 -0.4681276266307509 1.4641030256482484e-37 1.4641030256482526e-37 -2.858042026657817e-55	 0.18000000 -0.17984273   1.79499542e+00  1.77754338e+00  6.85840877e+00  6.85481465e+00 -1.33630776e-02  5.52881303e-03  3.95084377e-03  3.29444921e-02  4.69977549e+00  4.73986836e+00  1.81159706e+01  1.81163450e+01 
0.21052631578947345 -0.18683845445451874 -0.4749918698930262 1.4759066804934307e-37 1.4759066804934378e-37 -2.8623400491035458e-55	 0.20000000 -0.18457740   1.78598912e+00  1.78024250e+00  6.87818743e+00  6.85859852e+00  6.97667190e-03 -1.51289292e-02  3.01960052e-02  6.32312977e-03  4.70601951e+00  4.71719905e+00  1.81264836e+01  1.81675615e+01 
0.2305764411027571 -0.19194320504634188 -0.479033985656356 1.4870993159808423e-37 1.4870993159808456e-37 -2.881397850965374e-55	 0.22000000 -0.18929722   1.76681318e+00  1.79327809e+00  6.86527652e+00  6.89822127e+00 -1.05945774e-02  2.04200365e-03  1.23373186e-02  2.08370432e-02  4.73249782e+00  4.67399527e+00  1.82133349e+01  1.81499714e+01 
0.25062656641603986 -0.19646998231685142 -0.4574072997287381 1.4496319747482657e-37 1.4496319747482548e-37 -2.8674908088804084e-55	 0.24000000 -0.19398533   1.79305739e+00  1.76079839e+00  6.91220001e+00  6.88093401e+00 -6.51702614e-03 -2.11705901e-03  1.17701276e-02  2.15367750e-02  4.65840581e+00  4.73134896e+00  1.81917144e+01  1.82501138e+01 
0.2706766917293226 -0.20099097980728975 -0.4749691283375808 1.4824914007821827e-37 1.4824914007821827e-37 -2.8880758132618613e-55	 0.26000000 -0.19866003   1.76387437e+00  1.78293135e+00  6.89724657e+00  6.91298125e+00  5.17353416e-03 -1.39846364e-02  2.71931066e-02  4.26375409e-03  4.70787900e+00  4.66392958e+00  1.82593916e+01  1.82309268e+01 
0.2907268170426063 -0.20604297089446955 -0.4634844581721681 1.4642179490026906e-37 1.4642179490026935e-37 -2.8871269666161826e-55	 0.28000000 -0.20332654   1.76707490e+00  1.77292169e+00  6.91555187e+00  6.92229862e+00 -1.60293970e-02  6.75562943e-03  1.51402631e-03  2.64775207e-02  4.68340511e+00  4.67062213e+00  1.82876568e+01  1.82731724e+01 
0.31077694235588993 -0.2102972655102635 -0.4527726768331475 1.446562536760545e-37 1.4465625367605413e-37 -2.884588198392951e-55	 0.30000000 -0.20796498   1.78042843e+00  1.75272893e+00  6.94314418e+00  6.91708668e+00  1.67498661e-03 -1.12053615e-02  2.19980531e-02  6.83070744e-03  4.63588822e+00  4.69936731e+00  1.82832069e+01  1.83353805e+01 
0.3308270676691727 -0.21507808991004573 -0.47057486362382817 1.479955501057076e-37 1.4799555010570702e-37 -2.9050806648992858e-55	 0.32000000 -0.21258376   1.74638121e+00  1.77946566e+00  6.92120672e+00  6.95415304e+00 -2.41460911e-03 -7.22080319e-03  1.40713001e-02  1.20324517e-02  4.69615140e+00  4.61961674e+00  1.83638186e+01  1.82971407e+01 
0.35087719298245545 -0.21984809572802622 -0.4481296712403778 1.4407398109426347e-37 1.440739810942635e-37 -2.8910594343766764e-55	 0.34000000 -0.21718724   1.76836829e+00  1.75002536e+00  6.96222320e+00  6.93867515e+00 -1.47238124e-02  4.90183345e-03  2.99811953e-03  2.11144179e-02  4.62709541e+00  4.66971239e+00  1.83394501e+01  1.83882464e+01 
0.3709273182957391 -0.22405026759910407 -0.4523332126396584 1.4509511493440132e-37 1.450951149344015e-37 -2.9049369512428137e-55	 0.36000000 -0.22177858   1.75917713e+00  1.75140794e+00  6.95667348e+00  6.95837981e+00  6.14122188e-03 -1.63614959e-02  2.45556073e-02 -5.04185453e-04  4.62900829e+00  4.64739117e+00  1.83850712e+01  1.83807349e+01 
0.39097744360902276 -0.2290047819204475 -0.46027212877338175 1.4652440812639749e-37 1.46524408126397e-37 -2.911353091633003e-55	 0.38000000 -0.22635392   1.73691712e+00  1.76611154e+00  6.95477307e+00  6.97651551e+00 -1.10890120e-02  5.16132684e-04  8.27788839e-04  1.96108724e-02  4.66218692e+00  4.59340802e+00  1.84266945e+01  1.83811723e+01 
0.4110275689223055 -0.23342415303334474 -0.4367281174282461 1.4243736941376427e-37 1.4243736941376412e-37 -2.899521553609227e-55	 0.40000000 -0.23089829   1.76388682e+00  1.73137424e+00  6.99325094e+00  6.95897997e+00 -8.44735323e-03 -2.09120784e-03  1.13857696e-02  9.00635244e-03  4.57917652e+00  4.65575538e+00  1.83939964e+01  1.84679151e+01 
0.4310776942355883 -0.23776413216451497 -0.45229149762911175 1.4550283952132043e-37 1.4550283952132024e-37 -2.9215553595400145e-55	 0.42000000 -0.23543442   1.73555684e+00  1.75107569e+00  6.96597999e+00  6.99408536e+00  4.73566081e-03 -1.54766867e-02  1.74376633e-02  1.78900103e-03  4.62464093e+00  4.58846575e+00  1.84740362e+01  1.84117496e+01 
0.45112781954887193 -0.2426910308346497 -0.445837255053712 1.4421109173304937e-37 1.4421109173304958e-37 -2.9114583345189207e-55	 0.44000000 -0.23996574   1.73363991e+00  1.74477519e+00  6.99140727e+00  6.98561916e+00 -1.62992955e-02  5.02370386e-03 -4.75625080e-03  2.03274227e-02  4.60931952e+00  4.58202577e+00  1.84576967e+01  1.84716125e+01 
0.4711779448621556 -0.24685474335910973 -0.43055274604265437 1.4174623154576831e-37 1.417462315457676e-37 -2.912636489029993e-55	 0.46000000 -0.24446631   1.75041670e+00  1.71983742e+00  7.00591621e+00  6.98515502e+00 -1.16901949e-03 -1.02494376e-02  1.82999709e-02 -2.06600793e-03  4.54769157e+00  4.62115740e+00  1.84595248e+01  1.85053313e+01 
0.49122807017543835 -0.2514160377052963 -0.44908950429993527 1.4519437517926972e-37 1.451943751792685e-37 -2.9299235282655683e-55	 0.48000000 -0.24894955   1.71545793e+00  1.74591013e+00  6.98033370e+00  7.01616207e+00 -1.37674771e-03 -1.00497485e-02  5.10370667e-03  8.78430353e-03  4.60911858e+00  4.53647860e+00  1.85312180e+01  1.84499450e+01 
0.5112781954887211 -0.2561257615922372 -0.4307898660504601 1.4175804127760207e-37 1.4175804127760186e-37 -2.9115183758367344e-55	 0.50000000 -0.25342581   1.73168027e+00  1.72073901e+00  7.02112724e+00  6.99115467e+00 -1.61770322e-02  4.44121821e-03 -1.82586677e-03  1.34939211e-02  4.54877128e+00  4.57402982e+00  1.84763549e+01  1.85455675e+01 
0.5313283208020048 -0.2602027968457856 -0.42840681024266003 1.417288242487477e-37 1.4172882424874757e-37 -2.9265072804223696e-55	 0.52000000 -0.25788767   1.72935874e+00  1.71406694e+00  7.00630301e+00  7.01195808e+00  3.55066686e-03 -1.56885708e-02  1.86625458e-02 -6.71145453e-03  4.53035880e+00  4.56839317e+00  1.85261855e+01  1.85124827e+01 
0.5513784461152884 -0.2649422697699726 -0.4410649788303882 1.4389356199551667e-37 1.4389356199551742e-37 -2.9300144186254145e-55	 0.54000000 -0.26233051   1.70158450e+00  1.73287422e+00  7.00065379e+00  7.02324320e+00 -8.96760878e-03 -3.34055580e-03 -5.86878943e-03  1.42199071e-02  4.57519495e+00  4.49905220e+00  1.85528496e+01  1.85004169e+01 
0.5714285714285712 -0.26935352351002484 -0.41828225289778953 1.3976691942884098e-37 1.3976691942884054e-37 -2.9149355305998165e-55	 0.56000000 -0.26675054   1.72598865e+00  1.69914688e+00  7.03689575e+00  6.99944938e+00 -1.17736095e-02 -5.07005280e-04  5.21576050e-03  2.72464448e-03  4.49277728e+00  4.55725296e+00  1.84980277e+01  1.85861023e+01 
0.5914786967418539 -0.27349957454525353 -0.4276465628898394 1.4184597459599452e-37 1.4184597459599413e-37 -2.9365584638292705e-55	 0.58000000 -0.27116647   1.70504616e+00  1.71017462e+00  7.00338093e+00  7.03230331e+00  3.94072694e-03 -1.65597779e-02  1.20967214e-02 -4.60604265e-03  4.51785697e+00  4.50678062e+00  1.85771365e+01  1.85085229e+01 
0.6115288220551376 -0.27828026594582633 -0.4289300598681266 1.4178421050599238e-37 1.4178421050599238e-37 -2.925222206631693e-55	 0.60000000 -0.27557373   1.69318674e+00  1.71262935e+00  7.02192322e+00  7.01982507e+00 -1.46801904e-02  1.59763435e-03 -1.09852112e-02  1.44583532e-02  4.52390999e+00  4.47525099e+00  1.85480081e+01  1.85528836e+01 
0.6315789473684212 -0.28243417408047367 -0.40983465256714424 1.3850358802778676e-37 1.3850358802778705e-37 -2.9214804094298822e-55	 0.62000000 -0.27994951   1.71354235e+00  1.68273747e+00  7.03748368e+00  7.01106432e+00 -5.70006683e-03 -7.34224380e-03  1.10585342e-02 -7.05896711e-03  4.44891508e+00  4.52442239e+00  1.85264360e+01  1.85899759e+01 
0.651629072681704 -0.28674215375568957 -0.4254507980975251 1.4156164225071041e-37 1.4156164225071094e-37 -2.93989248464269e-55	 0.64000000 -0.28431605   1.68204175e+00  1.70383265e+00  7.00319195e+00  7.04118438e+00  2.59180228e-04 -1.33789679e-02  1.58431595e-03  9.08439341e-04  4.49950632e+00  4.44713836e+00  1.85998937e+01  1.85082380e+01 
0.6716791979949868 -0.29140631940332784 -0.4150112506339619 1.3933206005572175e-37 1.3933206005572148e-37 -2.919657126937287e-55	 0.66000000 -0.28868041   1.68725582e+00  1.68848739e+00  7.03746817e+00  7.01234892e+00 -1.65901675e-02  3.00142463e-03 -9.72981298e-03  9.18218708e-03  4.46243346e+00  4.45780859e+00  1.85306827e+01  1.85911184e+01 
0.6917293233082704 -0.29541789789886397 -0.40518984563229865 1.3788484092385903e-37 1.37884840923858e-37 -2.928627243107674e-55	 0.68000000 -0.29302202   1.69426496e+00  1.67144244e+00  7.02679038e+00  7.02257764e+00 -6.12591129e-04 -1.31982108e-02  1.23855983e-02 -1.23788548e-02  4.41785720e+00  4.47507794e+00  1.85546388e+01  1.85655700e+01 
0.7117794486215541 -0.2998974894334485 -0.4199174106805407 1.4054991374083338e-37 1.4054991374083347e-37 -2.9362084980693816e-55	 0.70000000 -0.29734662   1.66319903e+00  1.69200902e+00  7.00681053e+00  7.03740581e+00 -5.69794921e-03 -8.12486309e-03 -8.70037195e-03  5.82168367e-03  4.46791286e+00  4.39711996e+00  1.85913086e+01  1.85160070e+01 
0.7318295739348368 -0.30433899265321873 -0.4019154544605808 1.3702880800292296e-37 1.3702880800292358e-37 -2.915940513869413e-55	 0.72000000 -0.30166132   1.68008676e+00  1.66441512e+00  7.04220585e+00  7.00541272e+00 -1.46815903e-02  6.80718450e-04 -4.65721895e-03  4.34859924e-04  4.40008876e+00  4.43740667e+00  1.85122498e+01  1.86023366e+01 
0.7518796992481196 -0.3083371040180716 -0.40282189402882645 1.3759064036481982e-37 1.3759064036481996e-37 -2.9332854159648822e-55	 0.74000000 -0.30596757   1.67051826e+00  1.66313503e+00  7.01081217e+00  7.02934116e+00  1.70514901e-03 -1.60829548e-02  8.50000436e-03 -1.25278727e-02  4.39451904e+00  4.41437135e+00  1.85710506e+01  1.85262826e+01 
0.7719298245614032 -0.31291929648613825 -0.4106739561468699 1.3878516178139903e-37 1.387851617813994e-37 -2.9273760564525512e-55	 0.76000000 -0.31025934   1.64908066e+00  1.67391569e+00  7.01153571e+00  7.02330312e+00 -1.15240519e-02 -3.08103740e-03 -1.54405828e-02  7.46290961e-03  4.42107819e+00  4.35888840e+00  1.85565015e+01  1.85263691e+01 
0.7919799498746869 -0.3171183671841573 -0.3914595535899899 1.3520221593178126e-37 1.3520221593178227e-37 -2.9145420734738114e-55	 0.78000000 -0.31452813   1.66867193e+00  1.64335238e+00  7.03424476e+00  7.00029763e+00 -1.03446041e-02 -4.20642037e-03  7.75757506e-04 -8.75661442e-03  4.34450569e+00  4.40658930e+00  1.84972954e+01  1.85818292e+01 
0.8120300751879697 -0.3212041159243946 -0.4006553932346923 1.372149855348476e-37 1.3721498553484754e-37 -2.9330650938301384e-55	 0.80000000 -0.31879307   1.64569186e+00  1.65475320e+00  6.99446255e+00  7.02750935e+00  6.80361719e-04 -1.54828889e-02  7.32770334e-04 -9.12355512e-03  4.37108861e+00  4.35019014e+00  1.85655769e+01  1.84839871e+01 
0.8320802005012524 -0.3257730525478153 -0.39880342434568594 1.3650287352232858e-37 1.365028735223292e-37 -2.9161799195067602e-55	 0.82000000 -0.32305265   1.63834039e+00  1.65096025e+00  7.01309845e+00  7.00302760e+00 -1.52095548e-02 -2.89687488e-05 -1.73711877e-02  4.98419096e-03  4.36209878e+00  4.32936611e+00  1.85048794e+01  1.85287235e+01 
0.8521303258145361 -0.3297862667331224 -0.38423962114953536 1.3394353923619202e-37 1.3394353923619214e-37 -2.9142781580862628e-55	 0.84000000 -0.32728560   1.65164575e+00  1.62645172e+00  7.01493910e+00  6.99556623e+00 -5.51176917e-03 -9.73027813e-03  3.87716749e-03 -1.56958141e-02  4.29920367e+00  4.36203889e+00  1.84833888e+01  1.85327650e+01 
0.8721804511278197 -0.3340101259453445 -0.39679268824913744 1.364091329462594e-37 1.3640913294625973e-37 -2.9269334125474824e-55	 0.86000000 -0.33150898   1.62275132e+00  1.64340780e+00  6.97994257e+00  7.01512016e+00 -3.08300474e-03 -1.22102085e-02 -8.50193865e-03 -4.71900911e-03  4.34027083e+00  4.28998487e+00  1.85331072e+01  1.84449942e+01 
0.8922305764411025 -0.338452043927187 -0.3861937689976391 1.3407060720647687e-37 1.3407060720647683e-37 -2.9050358515061604e-55	 0.88000000 -0.33573023   1.62851139e+00  1.62587149e+00  7.00748479e+00  6.98050404e+00 -1.58204996e-02  1.43088497e-04 -1.52664368e-02 -9.81928914e-04  4.29728831e+00  4.30223269e+00  1.84459052e+01  1.85125756e+01 
0.9122807017543852 -0.34237640807619396 -0.379719101089783 1.3312794816378188e-37 1.3312794816378267e-37 -2.9131687270688326e-55	 0.90000000 -0.33993322   1.62956757e+00  1.61312247e+00  6.98775833e+00  6.98839356e+00 -1.93589307e-03 -1.39543874e-02  3.32934038e-03 -1.89238375e-02  4.26305843e+00  4.30500418e+00  1.84635622e+01  1.84632468e+01 
0.9323308270676689 -0.34672818851402676 -0.39012430139347243 1.3498920425126532e-37 1.349892042512653e-37 -2.9153095597235677e-55	 0.92000000 -0.34412190   1.60334077e+00  1.62728922e+00  6.96680488e+00  6.99238351e+00 -8.11619935e-03 -7.81857580e-03 -1.66685200e-02 -1.58451078e-03  4.29765753e+00  4.23833575e+00  1.84741485e+01  1.84091427e+01 
0.9523809523809526 -0.35097524958742476 -0.3747047432841794 1.3183879744933586e-37 1.318387974493361e-37 -2.8952554082925306e-55	 0.94000000 -0.34830117   1.61688723e+00  1.60151356e+00  6.99204138e+00  6.95810033e+00 -1.36315595e-02 -2.44993429e-03 -1.10894399e-02 -8.86992554e-03  4.23365374e+00  4.27055298e+00  1.83860452e+01  1.84710683e+01 
0.9724310776942353 -0.3549106491868912 -0.3765798715674467 1.3248565048811242e-37 1.324856504881125e-37 -2.9091772862524094e-55	 0.96000000 -0.35247213   1.60449843e+00  1.60151528e+00  6.95666466e+00  6.97572120e+00 -7.51584296e-04 -1.56224597e-02 -8.96948995e-04 -1.84667293e-02  4.23135706e+00  4.24026280e+00  1.84295688e+01  1.83827177e+01 
0.9924812030075181 -0.3593243248560627 -0.38065668186323875 1.3298398474215087e-37 1.329839847421508e-37 -2.8997117792440195e-55	 0.98000000 -0.35663259   1.58753879e+00  1.60618762e+00  6.95287505e+00  6.96131023e+00 -1.26283774e-02 -3.97770408e-03 -2.19016970e-02 -1.14296894e-03  4.24277728e+00  4.19582466e+00  1.83935875e+01  1.83712617e+01 
1.0125313283208017 -0.3633747825862823 -0.3655410484521664 1.3002933195672868e-37 1.3002933195672855e-37 -2.886929083627338e-55	 1.00000000 -0.36077395   1.60136190e+00  1.57991462e+00  6.96595951e+00  6.93630582e+00 -9.80724158e-03 -6.79502070e-03 -7.01736826e-03 -1.67236919e-02  4.17653519e+00  4.22913435e+00  1.83273801e+01  1.84023229e+01 
1.0325814536340854 -0.3673964510074814 -0.37318671474631315 1.316956892883756e-37 1.3169568928837526e-37 -2.9007249535136668e-55	 1.02000000 -0.36490871   1.57910314e+00  1.58919363e+00  6.92475772e+00  6.95502711e+00 -2.25552159e-03 -1.45126899e-02 -7.85576690e-03 -1.54950819e-02  4.19778781e+00  4.17420109e+00  1.83745727e+01  1.82989967e+01 
1.0526315789473681 -0.3717741827013239 -0.36942090398071464 1.30609451665533e-37 1.3060945166553319e-37 -2.882155124665185e-55	 1.04000000 -0.36904077   1.57407593e+00  1.58146267e+00  6.93524548e+00  6.92488955e+00 -1.51447112e-02 -2.00159162e-03 -2.34560113e-02 -3.90557057e-03  4.17883293e+00  4.15928764e+00  1.82986580e+01  1.83236523e+01 
1.072681704260651 -0.3756842002108607 -0.35898426377157555 1.2868465598606689e-37 1.2868465598606724e-37 -2.879172771476383e-55	 1.06000000 -0.37315183   1.58109240e+00  1.56176593e+00  6.93027033e+00  6.91406732e+00 -5.89300940e-03 -1.13179813e-02 -4.80882567e-03 -2.27094462e-02  4.12801771e+00  4.17604607e+00  1.82676945e+01  1.83091188e+01 
1.0927318295739346 -0.37982446834515815 -0.36810820569717045 1.3048723574969007e-37 1.3048723574968988e-37 -2.8870225083655812e-55	 1.08000000 -0.37725139   1.55567766e+00  1.57388803e+00  6.89358268e+00  6.92482821e+00 -5.85374049e-03 -1.13783319e-02 -1.59507640e-02 -1.17336037e-02  4.15667687e+00  4.11261578e+00  1.82948391e+01  1.82164456e+01 
1.1127819548872182 -0.38407499206613993 -0.35799714535360655 1.2818028632943277e-37 1.2818028632943258e-37 -2.8645243437989196e-55	 1.10000000 -0.38135030   1.56081765e+00  1.55546376e+00  6.91103073e+00  6.88612876e+00 -1.50119618e-02 -2.53607544e-03 -2.17550144e-02 -9.57572724e-03  4.11139147e+00  4.12317815e+00  1.81968145e+01  1.82585373e+01 
1.132832080200501 -0.38793156115443606 -0.3544293925369429 1.2767241417422406e-37 1.2767241417422352e-37 -2.8704766408911517e-55	 1.12000000 -0.38543453   1.55678058e+00  1.54637306e+00  6.88744987e+00  6.88931443e+00 -3.32846341e-03 -1.44281897e-02 -5.55121063e-03 -2.55770742e-02  4.08645978e+00  4.11302891e+00  1.82015094e+01  1.81976239e+01 
1.1528822055137837 -0.39216966075929305 -0.3606085695186191 1.2873094789872496e-37 1.2873094789872423e-37 -2.86826647938583e-55	 1.14000000 -0.38950511   1.53544064e+00  1.55424127e+00  6.86303942e+00  6.88503295e+00 -1.02187943e-02 -7.58886692e-03 -2.32705217e-02 -8.93912284e-03  4.10486530e+00  4.05881516e+00  1.81905104e+01  1.81352340e+01 
1.1729323308270674 -0.39624530261198165 -0.3478791715776841 1.2599264659829596e-37 1.2599264659829618e-37 -2.8480760167613373e-55	 1.16000000 -0.39356904   1.54542508e+00  1.53063153e+00  6.87793792e+00  6.84723503e+00 -1.25780615e-02 -5.37374247e-03 -1.81327848e-02 -1.71244563e-02  4.04642570e+00  4.08159285e+00  1.80938436e+01  1.81700826e+01 
1.192982456140351 -0.4001350940053745 -0.3506305310960306 1.2673330609372103e-37 1.267333060937215e-37 -2.8590477298472113e-55	 1.18000000 -0.39762379   1.53040953e+00  1.53194314e+00  6.84071678e+00  6.85943917e+00 -3.05325140e-03 -1.51126880e-02 -9.58446184e-03 -2.50097835e-02  4.04721362e+00  4.04477165e+00  1.81216203e+01  1.80756668e+01 
1.2130325814536338 -0.40440094696222917 -0.3509357778201781 1.2649162851704961e-37 1.2649162851704995e-37 -2.845676500149165e-55	 1.20000000 -0.40167015   1.51822841e+00  1.53034413e+00  6.83161324e+00  6.83712159e+00 -1.37179976e-02 -4.65666389e-03 -2.80223637e-02 -8.56169231e-03  4.04273415e+00  4.01252977e+00  1.80655967e+01  1.80514572e+01 
1.2330827067669166 -0.40831573659296727 -0.33994465276122615 1.2422023961539108e-37 1.2422023961539127e-37 -2.8331274849729713e-55	 1.22000000 -0.40570358   1.52614074e+00  1.50862964e+00  6.83482486e+00  6.80908115e+00 -9.00927231e-03 -9.44910148e-03 -1.44275333e-02 -2.48596743e-02  3.98821191e+00  4.03039526e+00  1.79923160e+01  1.80559608e+01 
1.2531328320802002 -0.4122985615154311 -0.3461140828655649 1.2556475486392874e-37 1.2556475486392859e-37 -2.8431897322095934e-55	 1.24000000 -0.40972601   1.50447663e+00  1.51614313e+00  6.79312695e+00  6.82177940e+00 -5.20353695e-03 -1.33311545e-02 -1.63967408e-02 -2.17704931e-02  4.00436172e+00  3.97724000e+00  1.80210221e+01  1.79507591e+01 
1.2731829573934839 -0.4164981711094189 -0.34022601210215425 1.2401127618600104e-37 1.240112761860012e-37 -2.8212686641134666e-55	 1.26000000 -0.41374668   1.50258143e+00  1.50378235e+00  6.79670905e+00  6.78396649e+00 -1.50467464e-02 -3.76923425e-03 -2.90995089e-02 -1.15037550e-02  3.97406785e+00  3.97000638e+00  1.79271678e+01  1.79580055e+01 
1.2932330827067666 -0.4203187176215877 -0.33418513084513035 1.228544437829036e-37 1.2285444378290376e-37 -2.818929559644094e-55	 1.28000000 -0.41775549   1.50252662e+00  1.48978382e+00  6.78228250e+00  6.77096090e+00 -5.85913366e-03 -1.31393240e-02 -1.25552954e-02 -3.06990903e-02  3.93769293e+00  3.96878938e+00  1.78904915e+01  1.79183263e+01 
1.3132832080200494 -0.4244068175266438 -0.3397253618465349 1.239322843938041e-37 1.2393228439380337e-37 -2.8218280504636656e-55	 1.30000000 -0.42174843   1.48101374e+00  1.49690684e+00  6.74664397e+00  6.77432238e+00 -8.95909885e-03 -1.00314446e-02 -2.44746749e-02 -1.75677927e-02  3.95301157e+00  3.91545181e+00  1.78951886e+01  1.78279166e+01 
1.333333333333333 -0.4284648506655637 -0.3300084701042124 1.2161444660635803e-37 1.2161444660635766e-37 -2.7972730125096396e-55	 1.32000000 -0.42573957   1.48619628e+00  1.47704277e+00  6.75510504e+00  6.72908213e+00 -1.38125284e-02 -5.36639661e-03 -2.66248000e-02 -1.78040075e-02  3.90470189e+00  3.92541321e+00  1.77836417e+01  1.78463913e+01 
1.3533834586466167 -0.4322806415592433 -0.3297274149297928 1.2170265898051547e-37 1.2170265898051493e-37 -2.8037202753817056e-55	 1.34000000 -0.42972425   1.47580108e+00  1.47294904e+00  6.72292918e+00  6.73058397e+00 -4.53298465e-03 -1.49062181e-02 -1.40789658e-02 -3.28563098e-02  3.89195208e+00  3.89975082e+00  1.77820810e+01  1.77638009e+01 
1.3734335839598995 -0.4364281424830505 -0.3311603158399836 1.217805536794257e-37 1.21780553679426e-37 -2.7951634363794395e-55	 1.36000000 -0.43369369   1.46077576e+00  1.47335177e+00  6.70140839e+00  6.71672991e+00 -1.27180569e-02 -6.78946045e-03 -3.13997801e-02 -1.46530099e-02  3.89138519e+00  3.86135304e+00  1.77442679e+01  1.77074884e+01 
1.3934837092731822 -0.4403267456607718 -0.3215239924436686 1.1956820209483271e-37 1.195682020948328e-37 -2.775285190676998e-55	 1.38000000 -0.43765634   1.46675325e+00  1.45245693e+00  6.70379986e+00  6.67536928e+00 -1.07604056e-02 -8.84020143e-03 -2.21566159e-02 -2.62057041e-02  3.84021129e+00  3.87326672e+00  1.76420827e+01  1.77097101e+01 
1.4135338345864659 -0.4442145062911633 -0.32514760256874464 1.2045142520510391e-37 1.2045142520510379e-37 -2.78504961329448e-55	 1.40000000 -0.44161338   1.44843185e+00  1.45584914e+00  6.66086000e+00  6.68437958e+00 -5.73534946e-03 -1.40529129e-02 -1.96452515e-02 -3.08076651e-02  3.84526948e+00  3.82898660e+00  1.76576441e+01  1.76019851e+01 
1.4335839598997495 -0.4483309081975342 -0.3211869379549378 1.1928576206878358e-37 1.1928576206878358e-37 -2.76508795308161e-55	 1.42000000 -0.44556083   1.44287415e+00  1.44639318e+00  6.65536524e+00  6.65124935e+00 -1.47405541e-02 -5.20824221e-03 -3.46298225e-02 -1.52067671e-02  3.82180844e+00  3.81269476e+00  1.75741901e+01  1.75838033e+01 
1.4536340852130323 -0.45212005367833985 -0.3151661250789966 1.1795632565696282e-37 1.1795632565696276e-37 -2.7554500693118748e-55	 1.44000000 -0.44950058   1.44301142e+00  1.43113614e+00  6.64148776e+00  6.62378696e+00 -7.50088740e-03 -1.25894237e-02 -1.83510468e-02 -3.40000586e-02  3.78331753e+00  3.81102771e+00  1.75047959e+01  1.75461296e+01 
1.473684210526315 -0.4561112879954312 -0.3190738894567674 1.1879629234777157e-37 1.1879629234777182e-37 -2.760603999407283e-55	 1.46000000 -0.45343035   1.42301095e+00  1.43594167e+00  6.60004693e+00  6.62847143e+00 -9.01423709e-03 -1.11667819e-02 -2.82298163e-02 -2.59576922e-02  3.79169403e+00  3.76251788e+00  1.75082116e+01  1.74421606e+01 
1.4937343358395987 -0.46010702409590554 -0.31130837954314733 1.1679101912499814e-37 1.1679101912499827e-37 -2.7347503822483178e-55	 1.48000000 -0.45735234   1.42500877e+00  1.41851589e+00  6.60443092e+00  6.58249991e+00 -1.40801710e-02 -6.21372998e-03 -3.29466568e-02 -2.04553596e-02  3.74994585e+00  3.76377442e+00  1.73955767e+01  1.74461512e+01 
1.5137844611528823 -0.4638784007850292 -0.31027250893396774 1.1662348819277027e-37 1.1662348819277033e-37 -2.736014298521844e-55	 1.50000000 -0.46127120   1.41569295e+00  1.41235650e+00  6.57014192e+00  6.57245679e+00 -5.83283022e-03 -1.46831646e-02 -1.81131344e-02 -3.78903567e-02  3.73218755e+00  3.74062639e+00  1.73665729e+01  1.73611974e+01 
1.533834586466165 -0.46793711313508 -0.31093145545508544 1.1661075527635981e-37 1.166107552763595e-37 -2.729619820197757e-55	 1.52000000 -0.46517927   1.40091996e+00  1.41172114e+00  6.54228457e+00  6.56070612e+00 -1.27095794e-02 -7.93639570e-03 -3.67110008e-02 -2.14384648e-02  3.72817917e+00  3.70359140e+00  1.73303246e+01  1.72884601e+01 
1.5538847117794479 -0.4717802047917652 -0.3029550584415501 1.146287460311682e-37 1.146287460311683e-37 -2.707063735532888e-55	 1.54000000 -0.46907561   1.40441348e+00  1.39255145e+00  6.54370446e+00  6.51549743e+00 -1.12484736e-02 -9.42516029e-03 -2.76858127e-02 -2.94875652e-02  3.68219292e+00  3.70824186e+00  1.72197279e+01  1.72833341e+01 
1.5739348370927315 -0.47562035195816343 -0.3053868599451481 1.1522641094477668e-37 1.1522641094477668e-37 -2.713584371266304e-55	 1.56000000 -0.47297014   1.38739303e+00  1.39370286e+00  6.49512674e+00  6.51664266e+00 -6.85058813e-03 -1.39954419e-02 -2.32549008e-02 -3.60314819e-02  3.68095385e+00  3.66787349e+00  1.72152153e+01  1.71670116e+01 
1.5939849624060152 -0.4796517763252772 -0.30139862490097913 1.1406114259293767e-37 1.140611425929376e-37 -2.694162427543427e-55	 1.58000000 -0.47685881   1.38145964e+00  1.38387528e+00  6.48565405e+00  6.48304660e+00 -1.46894212e-02 -6.36453632e-03 -4.09260582e-02 -2.09519017e-02  3.65660502e+00  3.65043486e+00  1.71297263e+01  1.71355569e+01 
1.614035087719298 -0.4833928056254322 -0.2966453473492396 1.1291994814599559e-37 1.1291994814599542e-37 -2.6828315512803374e-55	 1.60000000 -0.48073483   1.37943064e+00  1.37003425e+00  6.47027642e+00  6.45268681e+00 -8.09357063e-03 -1.30267485e-02 -2.26722434e-02 -3.85440658e-02  3.62201219e+00  3.64284999e+00  1.70520017e+01  1.70906528e+01 
1.6340852130325807 -0.4873352325353941 -0.29902398654619683 1.134086487135889e-37 1.134086487135891e-37 -2.6845774054436708e-55	 1.62000000 -0.48460484   1.36117566e+00  1.37217684e+00  6.42263057e+00  6.45036818e+00 -1.01187385e-02 -1.10904990e-02 -3.27388861e-02 -2.99323092e-02  3.62293989e+00  3.59948779e+00  1.70374746e+01  1.69770313e+01 
1.6541353383458643 -0.49124398162213834 -0.2920842302238869 1.1154340802997764e-37 1.1154340802997775e-37 -2.658699877146701e-55	 1.64000000 -0.48847086   1.36196418e+00  1.35524767e+00  6.42438366e+00  6.40191955e+00 -1.37478236e-02 -7.62966565e-03 -3.85330441e-02 -2.67611438e-02  3.58317994e+00  3.59675694e+00  1.69205405e+01  1.69690861e+01 
1.674185463659148 -0.49498513041629555 -0.29160787228989593 1.1147120888822456e-37 1.1147120888822441e-37 -2.659596692605061e-55	 1.66000000 -0.49232836   1.35093430e+00  1.35008740e+00  6.38657306e+00  6.39163878e+00 -6.82999354e-03 -1.46767486e-02 -2.25612475e-02 -4.25146909e-02  3.56722145e+00  3.56987659e+00  1.68857924e+01  1.68749789e+01 
1.6942355889724308 -0.4989789599000536 -0.2906888602754995 1.110518781050991e-37 1.1105187810509903e-37 -2.6479698297636685e-55	 1.68000000 -0.49617896   1.33855756e+00  1.34613959e+00  6.35549928e+00  6.37037477e+00 -1.35342075e-02 -8.08971996e-03 -4.17694516e-02 -2.44272353e-02  3.55512389e+00  3.53873400e+00  1.68284997e+01  1.67970600e+01 
1.7142857142857135 -0.50274540091684 -0.2844492944819503 1.094239403553825e-37 1.0942394035538224e-37 -2.6272986621052634e-55	 1.70000000 -0.50002300   1.33921454e+00  1.32909968e+00  6.35128221e+00  6.32463729e+00 -1.06883976e-02 -1.10544957e-02 -3.16484241e-02 -3.71843418e-02  3.51482278e+00  3.53570041e+00  1.67181505e+01  1.67739693e+01 
1.7343358395989972 -0.5065738767292811 -0.28617996655159655 1.098593240367258e-37 1.0985932403672575e-37 -2.6322323522551197e-55	 1.72000000 -0.50385889   1.32217832e+00  1.32963189e+00  6.30056316e+00  6.32498782e+00 -8.57516949e-03 -1.32550894e-02 -2.98285170e-02 -3.89827828e-02  3.51084209e+00  3.49618530e+00  1.67036850e+01  1.66531723e+01 
1.7543859649122808 -0.5105063423223455 -0.28140287143893855 1.0842459491330667e-37 1.0842459491330669e-37 -2.6074542559839465e-55	 1.74000000 -0.50769055   1.31821066e+00  1.31695157e+00  6.29014613e+00  6.28048618e+00 -1.45773494e-02 -7.38921415e-03 -4.42613525e-02 -2.51642572e-02  3.48073065e+00  3.48244436e+00  1.65979299e+01  1.66176623e+01 
1.7744360902255636 -0.5142091082790881 -0.2786927423605498 1.0775027125013618e-37 1.0775027125013639e-37 -2.6001637028355877e-55	 1.76000000 -0.51151741   1.31186719e+00  1.30665574e+00  6.26342587e+00  6.25370256e+00 -8.02866392e-03 -1.41046245e-02 -2.64987940e-02 -4.57980724e-02  3.45399214e+00  3.46507187e+00  1.65270951e+01  1.65468582e+01 
1.7944862155388464 -0.5181309570293782 -0.27898857817903105 1.0772573761375827e-37 1.0772573761375846e-37 -2.5962238522246808e-55	 1.78000000 -0.51533404   1.29649355e+00  1.30533078e+00  6.22038231e+00  6.24438732e+00 -1.21510239e-02 -1.00589546e-02 -4.13897529e-02 -3.14962228e-02  3.44619606e+00  3.42857056e+00  1.64896574e+01  1.64416948e+01 
1.81453634085213 -0.521921378512459 -0.27299810743424574 1.0601513550476657e-37 1.0601513550476636e-37 -2.569601135645879e-55	 1.80000000 -0.51914399   1.29650861e+00  1.28840394e+00  6.21713398e+00  6.19082039e+00 -1.24905777e-02 -9.78708705e-03 -3.85281555e-02 -3.41708201e-02  3.40741577e+00  3.42283613e+00  1.63660681e+01  1.64178724e+01 
1.8345864661654137 -0.5256755819611747 -0.27348356764620074 1.061649111538946e-37 1.061649111538944e-37 -2.57229261467186e-55	 1.82000000 -0.52295222   1.28213132e+00  1.28579466e+00  6.16728579e+00  6.18323753e+00 -8.20864860e-03 -1.42311340e-02 -2.93968938e-02 -4.57912226e-02  3.39592026e+00  3.38961616e+00  1.63329697e+01  1.63021016e+01 
1.8546365914786964 -0.5295940189979984 -0.2702257059595534 1.0512721072173932e-37 1.0512721072173914e-37 -2.552661507468121e-55	 1.84000000 -0.52675380   1.27438618e+00  1.27657917e+00  6.14681274e+00  6.14853851e+00 -1.45083049e-02 -8.07351355e-03 -4.87264181e-02 -2.81104878e-02  3.37274021e+00  3.36782518e+00  1.62444743e+01  1.62409224e+01 
1.8746867167919792 -0.5332793021662285 -0.2665153566320348 1.0410312339037067e-37 1.041031233903704e-37 -2.538019109256943e-55	 1.86000000 -0.53054612   1.27030935e+00  1.26357291e+00  6.12781680e+00  6.10951060e+00 -9.35607554e-03 -1.32931146e-02 -3.06610646e-02 -4.58616001e-02  3.34114159e+00  3.35415793e+00  1.61483798e+01  1.61830734e+01 
1.8947368421052628 -0.5371373595137583 -0.26699554652440527 1.041657480626695e-37 1.0416574806266952e-37 -2.536503483000256e-55	 1.88000000 -0.53433396   1.25429265e+00  1.26235566e+00  6.07530578e+00  6.10151791e+00 -1.12851183e-02 -1.14626756e-02 -4.04692482e-02 -3.75639033e-02  3.33231145e+00  3.31755174e+00  1.61119365e+01  1.60631716e+01 
1.9147869674185465 -0.5409356304437274 -0.26164815585733137 1.025616925179293e-37 1.025616925179299e-37 -2.5092404877670044e-55	 1.90000000 -0.53811780   1.25260927e+00  1.24676484e+00  6.07019795e+00  6.04787086e+00 -1.34484610e-02 -9.43244963e-03 -4.53900417e-02 -3.48226710e-02  3.29712560e+00  3.30717085e+00  1.59889003e+01  1.60295148e+01 
1.9348370927318292 -0.5446404684244732 -0.26113667932993895 1.0245042308117025e-37 1.0245042308117015e-37 -2.508702955508947e-55	 1.92000000 -0.54189489   1.24037158e+00  1.24166355e+00  6.02479594e+00  6.03355941e+00 -8.51019752e-03 -1.44727995e-02 -3.05525890e-02 -4.98357893e-02  3.28000478e+00  3.27846035e+00  1.59370419e+01  1.59216337e+01 
1.954887218045112 -0.5485277046527282 -0.25872939450306 1.0161717143352221e-37 1.0161717143352178e-37 -2.4910247237098915e-55	 1.94000000 -0.54566667   1.23053310e+00  1.23405474e+00  5.99365674e+00  6.00188020e+00 -1.42102498e-02 -8.87623847e-03 -5.03671091e-02 -3.07627232e-02  3.25957779e+00  3.25276419e+00  1.58551852e+01  1.58402866e+01 
1.9749373433583957 -0.5522051691002385 -0.25481659032051823 1.0047860293870901e-37 1.0047860293870983e-37 -2.4729143917687157e-55	 1.96000000 -0.54943368   1.22685311e+00  1.22023417e+00  5.97732844e+00  5.95595400e+00 -1.03185541e-02 -1.28870815e-02 -3.58403873e-02 -4.75588296e-02  3.22719133e+00  3.23884418e+00  1.57468374e+01  1.57841310e+01 
1.9949874686716793 -0.5560147839558611 -0.2548998099428887 1.004798478133471e-37 1.004798478133472e-37 -2.4721682918067188e-55	 1.98000000 -0.55319371   1.21130426e+00  1.21821142e+00  5.92302938e+00  5.94852099e+00 -1.11083888e-02 -1.21836491e-02 -4.16858541e-02 -4.25656404e-02  3.21551348e+00  3.20406539e+00  1.57039429e+01  1.56606986e+01 
2.015037593984962 -0.5597960616269098 -0.2502409404221407 9.898988547437834e-38 9.89898854743782e-38 -2.4440657573161904e-55	 2.00000000 -0.55694857   1.20815917e+00  1.20365372e+00  5.91310409e+00  5.89379721e+00 -1.37411900e-02 -9.63379969e-03 -4.86163219e-02 -3.56955349e-02  3.18302959e+00  3.18989456e+00  1.55818746e+01  1.56136815e+01 
2.035087719298245 -0.5634783629961937 -0.249277725595571 9.873656390830513e-38 9.873656390830544e-38 -2.4409683685691517e-55	 2.02000000 -0.56070091   1.19674368e+00  1.19729758e+00  5.86760845e+00  5.87340734e+00 -9.04416832e-03 -1.44593964e-02 -3.32079234e-02 -5.29110991e-02  3.16310175e+00  3.16293558e+00  1.55166471e+01  1.55077954e+01 
2.0551378446115285 -0.5673309734477952 -0.24693997980013474 9.793347671486663e-38 9.793347671486656e-38 -2.4241558821542248e-55	 2.04000000 -0.56444787   1.18645371e+00  1.18980303e+00  5.83345070e+00  5.84300809e+00 -1.41334022e-02 -9.48963936e-03 -5.34195938e-02 -3.45634907e-02  3.14240562e+00  3.13650681e+00  1.54334426e+01  1.54176478e+01 
2.075187969924812 -0.5709891662171593 -0.24334376128497767 9.683427354089036e-38 9.683427354089026e-38 -2.4050692590896236e-55	 2.06000000 -0.56818713   1.18208872e+00  1.17629379e+00  5.81581983e+00  5.79489627e+00 -1.07276796e-02 -1.29650728e-02 -3.85783903e-02 -4.95811011e-02  3.11118897e+00  3.12039848e+00  1.53211117e+01  1.53539845e+01 
2.095238095238095 -0.5747743864702868 -0.24299671512044438 9.670461629287574e-38 9.670461629287538e-38 -2.4020586968326537e-55	 2.08000000 -0.57192202   1.16716349e+00  1.17321341e+00  5.75895207e+00  5.78334887e+00 -1.14780150e-02 -1.22955833e-02 -4.40773017e-02 -4.47277564e-02  3.09653250e+00  3.08758290e+00  1.52671917e+01  1.52302243e+01 
2.1152882205513777 -0.578523763722758 -0.23874285950845175 9.529584369829403e-38 9.529584369829439e-38 -2.3741444207638187e-55	 2.10000000 -0.57565452   1.16326958e+00  1.15904294e+00  5.74656350e+00  5.72733303e+00 -1.36528538e-02 -1.02403402e-02 -5.13129410e-02 -3.94962028e-02  3.06539731e+00  3.07107893e+00  1.51450749e+01  1.51729690e+01 
2.1353383458646613 -0.5821957432906217 -0.23767501461853613 9.50167700395379e-38 9.501677003953749e-38 -2.3708637868404228e-55	 2.12000000 -0.57938199   1.15154474e+00  1.15267145e+00  5.69918615e+00  5.70684841e+00 -9.64185963e-03 -1.43563229e-02 -3.66714854e-02 -5.53403671e-02  3.04476303e+00  3.04384510e+00  1.50730504e+01  1.50628199e+01 
2.155388471177945 -0.5860112244385112 -0.23508741451394682 9.410397873351855e-38 9.410397873351864e-38 -2.3511275926031375e-55	 2.14000000 -0.58310347   1.14195678e+00  1.14407815e+00  5.66513632e+00  5.67116490e+00 -1.42436848e-02 -9.83252352e-03 -5.56943317e-02 -3.65550951e-02  3.02204292e+00  3.01847262e+00  1.49802676e+01  1.49710156e+01 
2.1754385964912277 -0.5896492775155218 -0.2320966626197757 9.315473788908685e-38 9.315473788908646e-38 -2.3336225189894425e-55	 2.16000000 -0.58682102   1.13612125e+00  1.13164192e+00  5.64110749e+00  5.62380359e+00 -1.07122749e-02 -1.34555755e-02 -3.99901846e-02 -5.34389071e-02  2.99292883e+00  2.99931942e+00  1.48705625e+01  1.48945736e+01 
2.1954887218045105 -0.5934276498776299 -0.23114639969560696 9.284205027814349e-38 9.284205027814342e-38 -2.3275119435128344e-55	 2.18000000 -0.59053475   1.12206179e+00  1.12737621e+00  5.58553456e+00  5.60833682e+00 -1.23098781e-02 -1.19604561e-02 -4.94615216e-02 -4.57317285e-02  2.97536794e+00  2.96845135e+00  1.48033690e+01  1.47734245e+01 
2.215538847117794 -0.597126306231146 -0.22725304759438586 9.151657439579168e-38 9.151657439579167e-38 -2.300273102070916e-55	 2.20000000 -0.59424328   1.11779039e+00  1.11325724e+00  5.57185825e+00  5.55063270e+00 -1.31710312e-02 -1.11827468e-02 -5.13804355e-02 -4.45778800e-02  2.94493714e+00  2.95028138e+00  1.46797631e+01  1.47061710e+01 
2.235588972431078 -0.6008067530305077 -0.2262855192353614 9.125123303095217e-38 9.125123303095214e-38 -2.296732027005246e-55	 2.22000000 -0.59794766   1.10501919e+00  1.10754685e+00  5.51778968e+00  5.53136096e+00 -1.04156715e-02 -1.40171515e-02 -4.06955744e-02 -5.56936638e-02  2.92445552e+00  2.92198850e+00  1.46045500e+01  1.45889292e+01 
2.2556390977443606 -0.6045791339191142 -0.2232587263797713 9.016090933306274e-38 9.016090933306311e-38 -2.2725724096473204e-55	 2.24000000 -0.60164941   1.09700136e+00  1.09701839e+00  5.48861345e+00  5.48617967e+00 -1.43228642e-02 -1.02090953e-02 -5.82402660e-02 -3.95443885e-02  2.89908021e+00  2.89839920e+00  1.44987963e+01  1.45005001e+01 
2.2756892230576433 -0.6082031328774875 -0.22098945488281796 8.945098482340848e-38 8.945098482340892e-38 -2.2598952449333805e-55	 2.26000000 -0.60534719   1.08889919e+00  1.08653689e+00  5.45483221e+00  5.44594414e+00 -1.05647988e-02 -1.40660733e-02 -4.10852316e-02 -5.82780767e-02  2.87256223e+00  2.87574582e+00  1.43956072e+01  1.44066121e+01 
2.295739348370927 -0.6119764780099328 -0.21929400568298554 8.886010826805219e-38 8.886010826805224e-38 -2.2473800525549284e-55	 2.28000000 -0.60903938   1.07643103e+00  1.08035696e+00  5.40437859e+00  5.42176340e+00 -1.33747702e-02 -1.13318342e-02 -5.56605075e-02 -4.43798337e-02  2.85172165e+00  2.84723779e+00  1.43109792e+01  1.42916646e+01 
2.3157894736842106 -0.6156193708984536 -0.21599681287052996 8.771203972449107e-38 8.771203972449149e-38 -2.2231086289194977e-55	 2.30000000 -0.61272737   1.07122895e+00  1.06681885e+00  5.38544704e+00  5.36427786e+00 -1.22914642e-02 -1.24870966e-02 -4.88815265e-02 -5.16852299e-02  2.82250794e+00  2.82696889e+00  1.41901301e+01  1.42118217e+01 
2.3358395989974934 -0.619329200802484 -0.21488234005254483 8.737908640326038e-38 8.73790864032607e-38 -2.2177055365130406e-55	 2.32000000 -0.61641304   1.05770555e+00  1.06153161e+00  5.32632135e+00  5.34604176e+00 -1.16574473e-02 -1.32110827e-02 -4.79502857e-02 -5.39185878e-02  2.80160934e+00  2.79823971e+00  1.41091545e+01  1.40906333e+01 
2.355889724310776 -0.623035613055787 -0.21157385867369935 8.616872758715569e-38 8.616872758715582e-38 -2.1904177971017703e-55	 2.34000000 -0.62009573   1.05140965e+00  1.04897380e+00  5.30445587e+00  5.29062141e+00 -1.38877922e-02 -1.10740718e-02 -5.81347341e-02 -4.51782939e-02  2.77417428e+00  2.77586035e+00  1.39916146e+01  1.40031725e+01 
2.37593984962406 -0.6266728506924741 -0.20998116875164305 8.569532474606659e-38 8.569532474606688e-38 -2.1828481015483595e-55	 2.36000000 -0.62377402   1.04041592e+00  1.04105983e+00  5.25598925e+00  5.26124078e+00 -1.08367408e-02 -1.42027844e-02 -4.36666647e-02 -6.04295267e-02  2.74998148e+00  2.75005131e+00  1.38951503e+01  1.38920608e+01 
2.3959899749373434 -0.6304192719750659 -0.2074583650605304 8.47554136425714e-38 8.475541364257122e-38 -2.161192992998536e-55	 2.38000000 -0.62744838   1.03068558e+00  1.03180941e+00  5.21699644e+00  5.22095524e+00 -1.41469830e-02 -1.09642788e-02 -6.07887869e-02 -4.39117074e-02  2.72567511e+00  2.72419989e+00  1.37914674e+01  1.37868472e+01 
2.416040100250626 -0.634028045400558 -0.20503762947072163 8.393529751119391e-38 8.393529751119375e-38 -2.1445950655838516e-55	 2.40000000 -0.63111999   1.02298349e+00  1.02046598e+00  5.18479096e+00  5.17291813e+00 -1.13984111e-02 -1.37942539e-02 -4.60961921e-02 -5.97362232e-02  2.69864017e+00  2.70092809e+00  1.36789778e+01  1.36889584e+01 
2.436090225563909 -0.637764622853559 -0.20327574445088298 8.332282162729443e-38 8.332282162729408e-38 -2.131728948070115e-55	 2.42000000 -0.63478859   1.01051623e+00  1.01383843e+00  5.13009459e+00  5.14718456e+00 -1.32574688e-02 -1.20199793e-02 -5.75999986e-02 -4.95694802e-02  2.67577939e+00  2.67331805e+00  1.35836474e+01  1.35713082e+01 
2.4561403508771926 -0.6413933047812148 -0.2002991376082429 8.223625164903984e-38 8.223625164903994e-38 -2.1073522755315878e-55	 2.44000000 -0.63845330   1.00433964e+00  1.00086512e+00  5.10766966e+00  5.08870547e+00 -1.26908295e-02 -1.26617216e-02 -5.33708249e-02 -5.47107422e-02  2.64818186e+00  2.65028644e+00  1.34638375e+01  1.34756497e+01 
2.4761904761904763 -0.6450797752129485 -0.19881989231147632 8.177633471533222e-38 8.177633471533218e-38 -2.099350990985063e-55	 2.46000000 -0.64211453   9.91472230e-01  9.94514327e-01  5.04836746e+00  5.06592293e+00 -1.21264765e-02 -1.32949667e-02 -5.17929620e-02 -5.69331987e-02  2.62456113e+00  2.62314244e+00  1.33659111e+01  1.33567598e+01 
2.496240601503759 -0.6487518126282767 -0.1958687190418713 8.064071669107754e-38 8.06407166910773e-38 -2.0722076895585026e-55	 2.48000000 -0.64577346   9.84443223e-01  9.82261381e-01  5.02229910e+00  5.00882283e+00 -1.37538307e-02 -1.17417827e-02 -6.00092163e-02 -4.96459489e-02  2.59808758e+00  2.59871525e+00  1.32496047e+01  1.32550390e+01 
2.516290726817042 -0.6523866275702039 -0.19417785183414416 8.011566510084269e-38 8.011566510084258e-38 -2.0631214715728896e-55	 2.50000000 -0.64943026   9.73141270e-01  9.74232981e-01  4.96990545e+00  4.97760235e+00 -1.15502693e-02 -1.40244696e-02 -4.85998992e-02 -6.22747133e-02  2.57283185e+00  2.57291033e+00  1.31430090e+01  1.31413397e+01 
2.5363408521303255 -0.6560925517903511 -0.19158552849293997 7.911451095359321e-38 7.911451095359357e-38 -2.0391031737658055e-55	 2.52000000 -0.65308400   9.63982522e-01  9.64016314e-01  4.93242973e+00  4.93114868e+00 -1.40987176e-02 -1.15504121e-02 -6.33898407e-02 -4.85476341e-02  2.54754433e+00  2.54696958e+00  1.30313399e+01  1.30299833e+01 
2.556390977443609 -0.6596948607239246 -0.18946882810621796 7.8401931248821e-38 7.840193124882083e-38 -2.0249082910415465e-55	 2.54000000 -0.65673424   9.54801882e-01  9.53766350e-01  4.89184079e+00  4.88702207e+00 -1.17134546e-02 -1.40024545e-02 -4.93470941e-02 -6.33502252e-02  2.52116514e+00  2.52197481e+00  1.29166060e+01  1.29197734e+01 
2.576441102756892 -0.6634071054025845 -0.18731336310955415 7.759310562314665e-38 7.759310562314642e-38 -2.006167146693367e-55	 2.56000000 -0.66038165   9.43635081e-01  9.45441404e-01  4.84160769e+00  4.85147469e+00 -1.37850800e-02 -1.19968100e-02 -6.25112862e-02 -5.09475396e-02  2.49621908e+00  2.49542210e+00  1.28069730e+01  1.28033012e+01 
2.5964912280701746 -0.6670058273519179 -0.18485536697200217 7.669163847029846e-38 7.669163847029866e-38 -1.985882618996322e-55	 2.58000000 -0.66402700   9.35912104e-01  9.33617562e-01  4.80996054e+00  4.79654436e+00 -1.23503444e-02 -1.35017881e-02 -5.31929044e-02 -6.12618016e-02  2.46970926e+00  2.47030417e+00  1.26897934e+01  1.26928564e+01 
2.6165413533834583 -0.6707016815766285 -0.18297289845313244 7.603103380308263e-38 7.603103380308257e-38 -1.9718988325785196e-55	 2.60000000 -0.66767024   9.23719095e-01  9.26216687e-01  4.75207957e+00  4.76739423e+00 -1.32006554e-02 -1.27229146e-02 -5.98162591e-02 -5.57289093e-02  2.44426239e+00  2.44397984e+00  1.25772052e+01  1.25755239e+01 
2.636591478696742 -0.6743158447312876 -0.18034573639775422 7.501547782502222e-38 7.501547782502216e-38 -1.9475359655529712e-55	 2.62000000 -0.67131086   9.16371918e-01  9.13922884e-01  4.72379278e+00  4.70814999e+00 -1.30717381e-02 -1.29191988e-02 -5.81804172e-02 -5.83082502e-02  2.41819400e+00  2.41813401e+00  1.24602671e+01  1.24602116e+01 
2.6566416040100247 -0.6779815778117881 -0.17854082685271194 7.441677564726994e-38 7.44167756472702e-38 -1.93594833142538e-55	 2.64000000 -0.67494881   9.04198803e-01  9.06402881e-01  4.66449127e+00  4.67913213e+00 -1.26848562e-02 -1.33690659e-02 -5.69279723e-02 -6.03470730e-02  2.39195989e+00  2.39232586e+00  1.23424104e+01  1.23441535e+01 
2.6766917293233075 -0.6816173823325749 -0.17593581428368973 7.337194486318857e-38 7.337194486318844e-38 -1.9098330865970034e-55	 2.66000000 -0.67858463   8.96340789e-01  8.94514353e-01  4.63352558e+00  4.62087936e+00 -1.36019363e-02 -1.25142350e-02 -6.21918080e-02 -5.58874402e-02  2.36635765e+00  2.36576740e+00  1.22272361e+01  1.22241543e+01 
2.696741854636591 -0.6852539399311699 -0.1740796312901951 7.275944805914488e-38 7.27594480591448e-38 -1.8981059035760688e-55	 2.68000000 -0.68221882   8.84840981e-01  8.86218755e-01  4.57721834e+00  4.58724149e+00 -1.24121209e-02 -1.37676699e-02 -5.52956308e-02 -6.37065878e-02  2.33956509e+00  2.34027569e+00  1.21053770e+01  1.21092678e+01 
2.7167919799498748 -0.6889092927063485 -0.1715853633255409 7.174558762281436e-38 7.174558762281453e-38 -1.872404867987846e-55	 2.70000000 -0.68585133   8.76065581e-01  8.75154904e-01  4.54054800e+00  4.53344279e+00 -1.38700899e-02 -1.23732122e-02 -6.48523618e-02 -5.51204909e-02  2.31407419e+00  2.31334965e+00  1.19899476e+01  1.19858544e+01 
2.7368421052631575 -0.6925234479429856 -0.16960963032947737 7.107835130393152e-38 7.107835130393177e-38 -1.859147255521188e-55	 2.72000000 -0.68948182   8.65436477e-01  8.65901717e-01  4.48941834e+00  4.49358697e+00 -1.23864673e-02 -1.39178774e-02 -5.52663110e-02 -6.56094087e-02  2.28711528e+00  2.28775967e+00  1.18655385e+01  1.18692472e+01 
2.7568922305764403 -0.6961897003035515 -0.1672445995911071 7.012066446163778e-38 7.012066446163807e-38 -1.834972452457786e-55	 2.74000000 -0.69311015   8.55739442e-01  8.55671030e-01  4.44639073e+00  4.44496842e+00 -1.39232490e-02 -1.24393057e-02 -6.60300617e-02 -5.56595249e-02  2.26134807e+00  2.26085666e+00  1.17474108e+01  1.17445781e+01 
2.776942355889724 -0.6997893392685786 -0.1651622607444823 6.938812229135712e-38 6.938812229135686e-38 -1.8194874226761335e-55	 2.76000000 -0.69673659   8.45850326e-01  8.45585448e-01  4.39997184e+00  4.39897468e+00 -1.25197212e-02 -1.38996822e-02 -5.62614619e-02 -6.62207256e-02  2.23456650e+00  2.23485675e+00  1.16230946e+01  1.16246900e+01 
2.7969924812030076 -0.7034592544108076 -0.16291230512467011 6.848511760807935e-38 6.848511760807981e-38 -1.7969174629628108e-55	 2.78000000 -0.70036156   8.35442995e-01  8.35972506e-01  4.35139017e+00  4.35441017e+00 -1.38594282e-02 -1.26167489e-02 -6.62839841e-02 -5.70307615e-02  2.20829868e+00  2.20823390e+00  1.15011520e+01  1.15010184e+01 
2.8170426065162903 -0.7070524153586764 -0.16075650452247742 6.769655226447188e-38 6.769655226447186e-38 -1.7793203828744518e-55	 2.80000000 -0.70398527   8.26040074e-01  8.25312620e-01  4.30832936e+00  4.30370191e+00 -1.27207013e-02 -1.38120916e-02 -5.79009177e-02 -6.62835676e-02  2.18184674e+00  2.18168224e+00  1.13781466e+01  1.13767233e+01 
2.837092731829573 -0.7107213924310962 -0.1585792023656349 6.683455938210367e-38 6.683455938210382e-38 -1.758108022451233e-55	 2.82000000 -0.70760768   8.15192227e-01  8.16057394e-01  4.25593886e+00  4.26177419e+00 -1.37645607e-02 -1.28237621e-02 -6.62516665e-02 -5.87965672e-02  2.15501411e+00  2.15539586e+00  1.12513527e+01  1.12543161e+01 
2.8571428571428568 -0.7143124220333363 -0.1563805127147403 6.600705525175603e-38 6.600705525175583e-38 -1.738952382372253e-55	 2.84000000 -0.71122868   8.06029113e-01  8.05077684e-01  4.21475813e+00  4.20807628e+00 -1.29205072e-02 -1.37216006e-02 -5.96619648e-02 -6.62131952e-02  2.12887717e+00  2.12830118e+00  1.11295037e+01  1.11251020e+01 
2.8771929824561404 -0.7179772553788775 -0.15424212585368527 6.516904956751113e-38 6.516904956751107e-38 -1.7185785163725132e-55	 2.86000000 -0.71484826   7.94964050e-01  7.95959725e-01  4.16005999e+00  4.16727718e+00 -1.36863630e-02 -1.30078585e-02 -6.61977181e-02 -6.04715185e-02  2.10154992e+00  2.10229056e+00  1.09981063e+01  1.10037859e+01 
2.897243107769423 -0.7215679741868182 -0.15203245004304095 6.431909169431063e-38 6.431909169431073e-38 -1.6983731580588937e-55	 2.88000000 -0.71846659   7.85853640e-01  7.84846834e-01  4.11933688e+00  4.11184315e+00 -1.30845240e-02 -1.36605996e-02 -6.12196170e-02 -6.62333854e-02  2.07563728e+00  2.07476483e+00  1.08772363e+01  1.08704770e+01 
2.917293233082706 -0.7252281278186901 -0.14991380502934934 6.348984783858955e-38 6.348984783858962e-38 -1.6782495963795605e-55	 2.90000000 -0.72208392   7.74722678e-01  7.75715120e-01  4.06340521e+00  4.07096390e+00 -1.36447867e-02 -1.31503351e-02 -6.63359948e-02 -6.19057776e-02  2.04794781e+00  2.04891822e+00  1.07422458e+01  1.07498623e+01 
2.9373433583959896 -0.7288196563104499 -0.14771297143194873 6.263088765581256e-38 6.263088765581248e-38 -1.6574792703110795e-55	 2.92000000 -0.72570046   7.65547962e-01  7.64589384e-01  4.02219731e+00  4.01474707e+00 -1.32057949e-02 -1.36383738e-02 -6.25279898e-02 -6.65057022e-02  2.02213359e+00  2.02109891e+00  1.06216160e+01  1.06133805e+01 
2.9573934837092732 -0.7324759641065604 -0.14559902120051593 6.179906177137185e-38 6.179906177137194e-38 -1.637174283832943e-55	 2.94000000 -0.72931630   7.54445625e-01  7.55355120e-01  3.96587575e+00  3.97307195e+00 -1.36401521e-02 -1.32518721e-02 -6.67325379e-02 -6.30848324e-02  1.99421793e+00  1.99528358e+00  1.04838383e+01  1.04924415e+01 
2.977443609022556 -0.7360686752260495 -0.1434145827138672 6.094124188840315e-38 6.094124188840335e-38 -1.6162885379824155e-55	 2.96000000 -0.73293148   7.45138541e-01  7.44290667e-01  3.92360744e+00  3.91679357e+00 -1.32899075e-02 -1.36485990e-02 -6.35799292e-02 -6.70040776e-02  1.96836885e+00  1.96730549e+00  1.03623121e+01  1.03536093e+01 
2.9974937343358388 -0.7397215963858026 -0.1412967838298403 6.009881764011295e-38 6.009881764011281e-38 -1.5954719950865431e-55	 2.98000000 -0.73654601   7.34124236e-01  7.34899266e-01  3.86749701e+00  3.87380760e+00 -1.36620853e-02 -1.33215194e-02 -6.73094329e-02 -6.40235449e-02  1.94036340e+00  1.94139039e+00  1.02227248e+01  1.02312356e+01 
3.0175438596491224 -0.7433156855391332 -0.13913258094897096 5.924916119223004e-38 5.924916119223008e-38 -1.5747991704848592e-55	 3.00000000 -0.74015993   7.24637711e-01  7.23946476e-01  3.82366707e+00  3.81798151e+00 -1.33484803e-02 -1.36789468e-02 -6.44306500e-02 -6.76387796e-02  1.91434921e+00  1.91339434e+00  1.00992358e+01  1.00912398e+01 
3.037593984962406 -0.7469650442194056 -0.13700961216115734 5.839076270132687e-38 5.839076270132708e-38 -1.55319815295176e-55	 3.02000000 -0.74377337   7.13757867e-01  7.14354013e-01  3.76824630e+00  3.77317899e+00 -1.36974916e-02 -1.33725944e-02 -6.79811061e-02 -6.48176834e-02  1.88640117e+00  1.88724598e+00  9.95920948e+00  9.96633160e+00 
3.057644110275689 -0.7505617286968926 -0.13486715865211577 5.755345105262998e-38 5.755345105263026e-38 -1.532943465822046e-55	 3.04000000 -0.74738645   7.04048339e-01  7.03559038e-01  3.72234043e+00  3.71829549e+00 -1.33956040e-02 -1.37160199e-02 -6.52001916e-02 -6.83229112e-02  1.86008114e+00  1.85938641e+00  9.83252797e+00  9.82667385e+00 
3.0776942355889716 -0.7542064937477408 -0.13274101381601017 5.667665695021224e-38 5.667665695021241e-38 -1.5104033051138475e-55	 3.06000000 -0.75099933   6.93350474e-01  6.93721183e-01  3.66813529e+00  3.67115490e+00 -1.37328894e-02 -1.34191179e-02 -6.86488277e-02 -6.55919455e-02  1.83235164e+00  1.83285546e+00  9.69365274e+00  9.69782108e+00 
3.0977443609022552 -0.7578084430492562 -0.13061822191382785 5.585250868323074e-38 5.585250868323079e-38 -1.4906346364362716e-55	 3.08000000 -0.75461213   6.83373644e-01  6.83132150e-01  3.61963360e+00  3.61776885e+00 -1.34445348e-02 -1.37466316e-02 -6.60047980e-02 -6.89436662e-02  1.80557097e+00  1.80529693e+00  9.56221276e+00  9.56014499e+00 
3.117794486215539 -0.7614464386238542 -0.12849227695119908 5.495903767288213e-38 5.495903767288223e-38 -1.4672050748312704e-55	 3.10000000 -0.75822497   6.72903149e-01  6.73007730e-01  3.56719065e+00  3.56779695e+00 -1.37561039e-02 -1.34729328e-02 -6.91949557e-02 -6.64482316e-02  1.77822006e+00  1.77823193e+00  9.42612636e+00  9.42572758e+00 
3.1378446115288217 -0.7650573030970562 -0.1263844930931286 5.414405109409265e-38 5.414405109409265e-38 -1.4477624524886855e-55	 3.12000000 -0.76183796   6.62626633e-01  6.62661334e-01  3.51567693e+00  3.51638177e+00 -1.35049200e-02 -1.37606606e-02 -6.69280387e-02 -6.93953526e-02  1.75084593e+00  1.75111573e+00  9.28842757e+00  9.29154351e+00 
3.1578947368421044 -0.7686857980276436 -0.12426310379342904 5.324119699701765e-38 5.324119699701785e-38 -1.4237804690268415e-55	 3.14000000 -0.76545118   6.52403157e-01  6.52234910e-01  3.46530704e+00  3.46331932e+00 -1.37603167e-02 -1.35404694e-02 -6.95446322e-02 -6.74443124e-02  1.72397493e+00  1.72342445e+00  9.15630608e+00  9.15042182e+00 
3.177944862155388 -0.7723087922896594 -0.12216546573720069 5.242545511383023e-38 5.242545511383032e-38 -1.4041890108134592e-55	 3.16000000 -0.76906475   6.41838453e-01  6.42123696e-01  3.41078447e+00  3.41391485e+00 -1.35787933e-02 -1.37558621e-02 -6.79895044e-02 -6.96510209e-02  1.69598299e+00  1.69678479e+00  9.01186831e+00  9.02028213e+00 
3.1979949874686717 -0.7759265561814508 -0.12005242643623307 5.15260516510512e-38 5.15260516510511e-38 -1.380296520210212e-55	 3.18000000 -0.77267878   6.31817074e-01  6.31444084e-01  3.36214090e+00  3.35814441e+00 -1.37488669e-02 -1.36183280e-02 -6.97313838e-02 -6.85475972e-02  1.66952953e+00  1.66854003e+00  8.88330351e+00  8.87296453e+00 
3.2180451127819545 -0.7795618192819909 -0.117962290799366 5.069550272745812e-38 5.069550272745826e-38 -1.359832061918716e-55	 3.20000000 -0.77629336   6.21058685e-01  6.21477347e-01  3.30547449e+00  3.30991728e+00 -1.36569037e-02 -1.37415058e-02 -6.90954236e-02 -6.98095357e-02  1.64111466e+00  1.64219277e+00  8.73392276e+00  8.74518740e+00 
3.2380952380952372 -0.7831721949156409 -0.11585863474670921 4.98137165579228e-38 4.981371655792266e-38 -1.3367773865498644e-55	 3.22000000 -0.77990863   6.11099920e-01  6.10687795e-01  3.25718765e+00  3.25283882e+00 -1.37361615e-02 -1.36921428e-02 -6.99120144e-02 -6.96067977e-02  1.61476141e+00  1.61372259e+00  8.60577753e+00  8.59492743e+00 
3.258145363408521 -0.7868140951107798 -0.11377662336966328 4.895715911456863e-38 4.89571591145686e-38 -1.3148281172406476e-55	 3.24000000 -0.78352468   6.00333824e-01  6.00683344e-01  3.20027024e+00  3.20392769e+00 -1.37220561e-02 -1.37348264e-02 -7.00592831e-02 -7.00613365e-02  1.58637112e+00  1.58723083e+00  8.45607716e+00  8.46500225e+00 
3.2781954887218046 -0.7904265792901257 -0.11168090664389034 4.809914042499867e-38 4.809914042499862e-38 -1.2929606439418456e-55	 3.26000000 -0.78714164   5.90231124e-01  5.89994272e-01  3.15016684e+00  3.14774879e+00 -1.37384442e-02 -1.37456980e-02 -7.02681081e-02 -7.04420930e-02  1.55960995e+00  1.55905402e+00  8.32293742e+00  8.31732315e+00 
3.2982456140350873 -0.7940646706206593 -0.10960811797248125 4.721857460465396e-38 4.721857460465412e-38 -1.2696167141338248e-55	 3.28000000 -0.79075960   5.79660607e-01  5.79752835e-01  3.09518620e+00  3.09600389e+00 -1.37636178e-02 -1.37464539e-02 -7.07620671e-02 -7.05250465e-02  1.53174849e+00  1.53192431e+00  8.17842661e+00  8.17984987e+00 
3.31829573934837 -0.7976905623487598 -0.10752114044929385 4.6373700116041365e-38 4.6373700116041344e-38 -1.2483582696871934e-55	 3.30000000 -0.79437870   5.69263694e-01  5.69318680e-01  3.04160576e+00  3.04242677e+00 -1.37568613e-02 -1.37777895e-02 -7.08070567e-02 -7.10436829e-02  1.50421457e+00  1.50441670e+00  8.03618994e+00  8.03896599e+00 
3.3383458646616537 -0.8013177012071429 -0.10545372217246302 4.548797187365902e-38 4.5487971873659195e-38 -1.2246749659764072e-55	 3.32000000 -0.79799908   5.58951405e-01  5.58781850e-01  2.98927462e+00  2.98717943e+00 -1.37908036e-02 -1.37670545e-02 -7.13198896e-02 -7.10805907e-02  1.47701379e+00  1.47652833e+00  7.89842168e+00  7.89250555e+00 
3.3583959899749374 -0.8049590671986988 -0.10338207694265295 4.463372432085485e-38 4.4633724320855164e-38 -1.2027368208611788e-55	 3.34000000 -0.80162086   5.48323313e-01  5.48543802e-01  2.93291423e+00  2.93555106e+00 -1.37752351e-02 -1.38044413e-02 -7.13214796e-02 -7.16144013e-02  1.44890575e+00  1.44950234e+00  7.74927477e+00  7.75634259e+00 
3.37844611528822 -0.8085819738691475 -0.10131279170306041 4.376343738010144e-38 4.376343738010136e-38 -1.1799080819645101e-55	 3.36000000 -0.80524418   5.38089308e-01  5.37895673e-01  2.88117110e+00  2.87890564e+00 -1.38182701e-02 -1.37818191e-02 -7.19227849e-02 -7.15337490e-02  1.42186915e+00  1.42136271e+00  7.61255388e+00  7.60669948e+00 
3.398496240601503 -0.8122260688424678 -0.09926020584893794 4.288875276911691e-38 4.288875276911676e-38 -1.1566481525376322e-55	 3.38000000 -0.80886915   5.27493162e-01  5.27594753e-01  2.82509063e+00  2.82620906e+00 -1.37897631e-02 -1.38293124e-02 -7.17559516e-02 -7.22059905e-02  1.39387941e+00  1.39413683e+00  7.46455269e+00  7.46731205e+00 
3.4185463659147866 -0.8158613095697975 -0.09719257099463496 4.203151123161192e-38 4.2031511231611925e-38 -1.1345053447663744e-55	 3.40000000 -0.81249588   5.17080610e-01  5.17096421e-01  2.77090953e+00  2.77123709e+00 -1.38336705e-02 -1.38029467e-02 -7.24093066e-02 -7.20423528e-02  1.36636111e+00  1.36640305e+00  7.32128990e+00  7.32219399e+00 
3.43859649122807 -0.8194967281241243 -0.09514673332648076 4.1152360168752897e-38 4.1152360168753027e-38 -1.1109262270461306e-55	 3.42000000 -0.81612452   5.06679324e-01  5.06574129e-01  2.71702147e+00  2.71560880e+00 -1.38228583e-02 -1.38298498e-02 -7.24195436e-02 -7.25059418e-02  1.33886890e+00  1.33860968e+00  7.17881935e+00  7.17532439e+00 
3.458646616541353 -0.8231464088842155 -0.0930974920149961 4.028640995474353e-38 4.0286409954743494e-38 -1.0880998748227991e-55	 3.44000000 -0.81975523   4.96096508e-01  4.96221769e-01  2.66057487e+00  2.66218788e+00 -1.38217375e-02 -1.38456012e-02 -7.25399957e-02 -7.28431466e-02  1.31092916e+00  1.31123324e+00  7.02999724e+00  7.03387905e+00 
3.4786967418546357 -0.8267843305878457 -0.09104590090698282 3.941993140742875e-38 3.941993140742875e-38 -1.0652730427261293e-55	 3.46000000 -0.82338813   4.85722371e-01  4.85650230e-01  2.60671610e+00  2.60584018e+00 -1.38623578e-02 -1.38181212e-02 -7.31978863e-02 -7.26259456e-02  1.28350020e+00  1.28331833e+00  6.88743485e+00  6.88527939e+00 
3.4987468671679194 -0.8304316659450921 -0.08901390700609421 3.8542748321800657e-38 3.8542748321800386e-38 -1.0416386859411318e-55	 3.48000000 -0.82702334   4.75215679e-01  4.75201893e-01  2.55114761e+00  2.55087646e+00 -1.38271081e-02 -1.38649879e-02 -7.28772491e-02 -7.33694203e-02  1.25572844e+00  1.25572155e+00  6.74052069e+00  6.74017164e+00 
3.518796992481203 -0.8340856275821162 -0.0869726357929094 3.7676755396825304e-38 3.7676755396825284e-38 -1.0187179664431972e-55	 3.50000000 -0.83066103   4.64691477e-01  4.64762872e-01  2.49508245e+00  2.49609725e+00 -1.38538910e-02 -1.38482874e-02 -7.33549088e-02 -7.32963827e-02  1.22796332e+00  1.22809653e+00  6.59296011e+00  6.59488617e+00 
3.538847117794486 -0.8377322032766354 -0.0849367534773807 3.680649916278019e-38 3.6806499162780153e-38 -9.955039155374172e-56	 3.52000000 -0.83430134   4.54273535e-01  4.54210543e-01  2.44044263e+00  2.43959348e+00 -1.38699484e-02 -1.38407645e-02 -7.37267910e-02 -7.33105571e-02  1.20039114e+00  1.20026003e+00  6.44797567e+00  6.44623598e+00 
3.5588972431077686 -0.8413884337135467 -0.08291491843491319 3.593139952432042e-38 3.593139952432054e-38 -9.718633280861908e-56	 3.54000000 -0.83794442   4.43750986e-01  4.43756933e-01  2.38429102e+00  2.38431559e+00 -1.38404582e-02 -1.38772123e-02 -7.34455371e-02 -7.39586587e-02  1.17259357e+00  1.17263346e+00  6.29971166e+00  6.30011248e+00 
3.578947368421052 -0.8450499365513569 -0.08088628827287662 3.506302854214248e-38 3.5063028542142536e-38 -9.486664674944436e-56	 3.56000000 -0.84159041   4.33242754e-01  4.33284313e-01  2.32813568e+00  2.32876971e+00 -1.38666950e-02 -1.38563403e-02 -7.39394536e-02 -7.38121630e-02  1.14487332e+00  1.14491723e+00  6.15199884e+00  6.15272183e+00 
3.598997493734336 -0.8487074305528837 -0.0788623316260542 3.419255065171731e-38 3.419255065171745e-38 -9.253009136033142e-56	 3.58000000 -0.84523947   4.22789589e-01  4.22753139e-01  2.27273254e+00  2.27221454e+00 -1.38744085e-02 -1.38523887e-02 -7.42097809e-02 -7.38697521e-02  1.11720209e+00  1.11714286e+00  6.00488573e+00  6.00405472e+00 
3.6190476190476186 -0.8523716842607223 -0.07685017024859155 3.331864067659887e-38 3.3318640676598887e-38 -9.016112500916645e-56	 3.60000000 -0.84889173   4.12280552e-01  4.12275583e-01  2.21643084e+00  2.21631644e+00 -1.38518839e-02 -1.38770463e-02 -7.40089507e-02 -7.43784067e-02  1.08943533e+00  1.08945818e+00  5.85613489e+00  5.85638996e+00 
3.6390977443609014 -0.8560430614371772 -0.07483611566390762 3.2448059949838467e-38 3.2448059949838446e-38 -8.781239860743231e-56	 3.62000000 -0.85254735   4.01770078e-01  4.01798477e-01  2.15993831e+00  2.16038427e+00 -1.38642626e-02 -1.38651457e-02 -7.43195147e-02 -7.43549199e-02  1.06171284e+00  1.06172670e+00  5.70763709e+00  5.70787987e+00 
3.659147869674185 -0.8597138310551315 -0.07282277553405692 3.157817777286473e-38 3.157817777286469e-38 -8.546661616071105e-56	 3.64000000 -0.85620651   3.91295674e-01  3.91285583e-01  2.10391169e+00  2.10377773e+00 -1.38738030e-02 -1.38544030e-02 -7.46246890e-02 -7.43154043e-02  1.03400542e+00  1.03398098e+00  5.55915447e+00  5.55880607e+00 
3.6791979949874687 -0.8633875041857104 -0.07081852784306852 3.0706047732427e-38 3.070604773242696e-38 -8.309799651991861e-56	 3.66000000 -0.85986939   3.80805424e-01  3.80790094e-01  2.04756315e+00  2.04730082e+00 -1.38588506e-02 -1.38664437e-02 -7.45393337e-02 -7.46442985e-02  1.00626250e+00  1.00627499e+00  5.40986542e+00  5.41003246e+00 
3.6992481203007515 -0.8670686364225879 -0.06881847143477253 2.983433078578665e-38 2.9834330785786536e-38 -8.072669739994081e-56	 3.68000000 -0.86353616   3.70301050e-01  3.70311576e-01  1.99085125e+00  1.99101110e+00 -1.38548045e-02 -1.38658406e-02 -7.46069172e-02 -7.47974645e-02  9.78543646e-01  9.78552537e-01  5.26061444e+00  5.26075746e+00 
3.719298245614034 -0.8707541832599899 -0.0668182133110916 2.896422155518777e-38 2.8964221555187724e-38 -7.836433803877317e-56	 3.70000000 -0.86720696   3.59812793e-01  3.59821109e-01  1.93427450e+00  1.93442724e+00 -1.38607003e-02 -1.38535255e-02 -7.48552233e-02 -7.47462434e-02  9.50841635e-01  9.50824371e-01  5.11135041e+00  5.11107811e+00 
3.739348370927318 -0.8744418234667377 -0.06482131735860996 2.80941849971607e-38 2.809418499716071e-38 -7.599843149125091e-56	 3.72000000 -0.87088199   3.49333713e-01  3.49326991e-01  1.87775406e+00  1.87764683e+00 -1.38561462e-02 -1.38498577e-02 -7.49449806e-02 -7.48291115e-02  9.23125694e-01  9.23124853e-01  4.96156972e+00  4.96154737e+00 
3.7593984962406015 -0.8781337471338382 -0.06283021248393049 2.7223712339118796e-38 2.7223712339118734e-38 -7.362338344307216e-56	 3.74000000 -0.87456141   3.38850063e-01  3.38844354e-01  1.82104354e+00  1.82093537e+00 -1.38459244e-02 -1.38500282e-02 -7.49291167e-02 -7.49927039e-02  8.95419147e-01  8.95434317e-01  4.81161409e+00  4.81187396e+00 
3.7794486215538843 -0.8818318754900629 -0.06084295985395442 2.635362777326989e-38 2.635362777326988e-38 -7.124593463886255e-56	 3.76000000 -0.87824545   3.28366883e-01  3.28369548e-01  1.76420676e+00  1.76424785e+00 -1.38400188e-02 -1.38440218e-02 -7.49841280e-02 -7.50599075e-02  8.67738527e-01  8.67739917e-01  4.66177811e+00  4.66181345e+00 
3.799498746867167 -0.8855356642228598 -0.05885778845475123 2.5484396973694684e-38 2.5484396973694653e-38 -6.88706829405168e-56	 3.78000000 -0.88193426   3.17891990e-01  3.17896175e-01  1.70738387e+00  1.70746347e+00 -1.38357499e-02 -1.38344759e-02 -7.50783136e-02 -7.50612780e-02  8.40070207e-01  8.40059040e-01  4.51183999e+00  4.51163939e+00 
3.8195488721804507 -0.8892441394369577 -0.056875083052490207 2.461584089271441e-38 2.4615840892714403e-38 -6.649621330903558e-56	 3.80000000 -0.88562804   3.07425276e-01  3.07425800e-01  1.65058143e+00  1.65059652e+00 -1.38283894e-02 -1.38260769e-02 -7.51253710e-02 -7.50821132e-02  8.12407572e-01  8.12402153e-01  4.36165829e+00  4.36154747e+00 
3.8395989974937343 -0.8929573687931311 -0.05489572634071887 2.374776516694326e-38 2.3747765166943263e-38 -6.412045004971595e-56	 3.82000000 -0.88932701   2.96964284e-01  2.96962368e-01  1.59375154e+00  1.59371613e+00 -1.38184814e-02 -1.38182455e-02 -7.51274666e-02 -7.51196502e-02  7.84759744e-01  7.84764070e-01  4.21137593e+00  4.21145116e+00 
3.859649122807017 -0.8966760701408962 -0.05291985022282492 2.288022091146895e-38 2.2880220911468983e-38 -6.174352590610377e-56	 3.84000000 -0.89303136   2.86509027e-01  2.86507376e-01  1.53688625e+00  1.53685179e+00 -1.38080248e-02 -1.38089375e-02 -7.51207275e-02 -7.51367727e-02  7.57134680e-01  7.57140854e-01  4.06113894e+00  4.06126230e+00 
3.8796992481203 -0.9004008167062489 -0.050947075180887154 2.2013363789507695e-38 2.201336378950772e-38 -5.936673587973506e-56	 3.86000000 -0.89674129   2.76061160e-01  2.76060722e-01  1.48001145e+00  1.48000026e+00 -1.37973086e-02 -1.37978132e-02 -7.51135350e-02 -7.51239416e-02  7.29533265e-01  7.29535722e-01  3.91096550e+00  3.91102207e+00 
3.8997493734335835 -0.9041318377785119 -0.04897703681095926 2.1147316643587365e-38 2.1147316643587305e-38 -5.699117833720108e-56	 3.88000000 -0.90045705   2.65622156e-01  2.65622521e-01  1.42315286e+00  1.42315921e+00 -1.37856696e-02 -1.37854865e-02 -7.50945241e-02 -7.50916020e-02  7.01954677e-01  7.01953710e-01  3.76083126e+00  3.76081677e+00 
3.919799498746867 -0.9078692497508012 -0.047009551432847865 2.0282153808983674e-38 2.028215380898367e-38 -5.461747804962539e-56	 3.90000000 -0.90417883   2.55192921e-01  2.55193494e-01  1.36632554e+00  1.36633760e+00 -1.37727155e-02 -1.37722927e-02 -7.50554356e-02 -7.50468979e-02  6.74400051e-01  6.74398010e-01  3.61074413e+00  3.61070262e+00 
3.93984962406015 -0.9116131862162546 -0.04504453423641366 1.941793329954091e-38 1.9417933299540962e-38 -5.224605647496479e-56	 3.92000000 -0.90790687   2.44774147e-01  2.44774625e-01  1.30953956e+00  1.30955042e+00 -1.37584606e-02 -1.37581547e-02 -7.49958322e-02 -7.49890756e-02  6.46872034e-01  6.46870411e-01  3.46074288e+00  3.46070681e+00 
3.9598997493734327 -0.9153638587133275 -0.04308190092103274 1.8554718325389024e-38 1.8554718325389115e-38 -4.987736252747206e-56	 3.94000000 -0.91164141   2.34366571e-01  2.34366897e-01  1.25280530e+00  1.25281313e+00 -1.37430127e-02 -1.37428959e-02 -7.49178059e-02 -7.49148638e-02  6.19373507e-01  6.19372619e-01  3.31087352e+00  3.31085213e+00 
3.9799498746867163 -0.9191215178695267 -0.041121539032757795 1.7692581187429606e-38 1.769258118742965e-38 -4.751192647636046e-56	 3.96000000 -0.91538269   2.23971035e-01  2.23971246e-01  1.19613500e+00  1.19614031e+00 -1.37264033e-02 -1.37264060e-02 -7.48223009e-02 -7.48220193e-02  5.91907096e-01  5.91906736e-01  3.16117764e+00  3.16116800e+00 
4.0 -0.922886438303133 -0.039163310780137836 1.683160098729649e-38 1.6831600987296511e-38 -4.515034379342726e-56	 3.98000000 -0.91913096   2.13588455e-01  2.13588598e-01  1.13954236e+00  1.13954609e+00 -1.37085923e-02 -1.37086353e-02 -7.47088923e-02 -7.47096249e-02  5.64475282e-01  5.64475194e-01  3.01169322e+00  3.01169023e+00 
