#mu n n_h sigma_xx sigma_yy sigma_xy
-4.0 1.0 -0.001794199695448002 -6.367128361250769e-42 -6.367128361250769e-42 -1.4102822449319698e-61
-3.979949874686717 1.0 -0.0017870885574416196 -7.058445815180632e-42 -7.058445815180607e-42 -1.740049898529264e-61
-3.9598997493734336 1.0 -0.0017805078682643354 -7.86773153768268e-42 -7.86773153768273e-42 -2.1699252533043285e-61
-3.9398496240601504 1.0 -0.001774511560515213 -8.823253250300612e-42 -8.82325325030062e-42 -2.7382195245599098e-61
-3.919799498746867 1.0 -0.0017691641462478072 -9.962214744645645e-42 -9.962214744645637e-42 -3.501331855713587e-61
-3.899749373433584 0.9999999999999999 -0.0017645442569703513 -1.133434520990316e-41 -1.1334345209903247e-41 -4.544121368570271e-61
-3.8796992481203008 0.999999999999999 -0.0017607498726130869 -1.300727581489168e-41 -1.300727581489165e-41 -5.997422428365126e-61
-3.8596491228070176 0.999999999999993 -0.0017579062611399738 -1.507478811353877e-41 -1.507478811353875e-41 -8.068565453020041e-61
-3.8395989974937343 0.9999999999999477 -0.001756178402384012 -1.76698112259064e-41 -1.7669811225906397e-41 -1.1096468738046765e-60
-3.819548872180451 0.999999999999612 -0.0017557910844901254 -2.0985527926447188e-41 -2.098552792644694e-41 -1.5655125914764967e-60
-3.799498746867168 0.9999999999971183 -0.0017570626339599585 -2.5310837484751043e-41 -2.5310837484751043e-41 -2.275702014024627e-60
-3.7794486215538847 0.9999999999785997 -0.001760463927615008 -3.1092297946832505e-41 -3.109229794683254e-41 -3.4274262380936136e-60
-3.7593984962406015 0.9999999998410769 -0.001766726615729751 -3.904722201634306e-41 -3.9047222016343065e-41 -5.386424019302611e-60
-3.7393483709273183 0.9999999988198075 -0.0017770525783100935 -5.038090698737752e-41 -5.038090698737758e-41 -8.9149988597544e-60
-3.719298245614035 0.9999999912356948 -0.0017935451473702541 -6.722865747229286e-41 -6.722865747229286e-41 -1.5728458845543462e-59
-3.699248120300752 0.9999999349160074 -0.0018201616061901491 -9.361497409666486e-41 -9.3614974096665e-41 -3.0051786855743264e-59
-3.6791979949874687 0.9999995167499941 -0.0018649864354748763 -1.3768004582255114e-40 -1.3768004582255086e-40 -6.343894216392271e-59
-3.6591478696741855 0.9999964154730207 -0.0019460827281222535 -2.1714950686170535e-40 -2.171495068617053e-40 -1.512328034603759e-58
-3.6390977443609023 0.9999736080606481 -0.0021071806945239034 -3.7276733260348235e-40 -3.727673326034832e-40 -4.1158877270742984e-58
-3.619047619047619 0.9998154530566096 -0.0024554315581093973 -6.9466459816219566e-40 -6.946645981621986e-40 -1.2266258320070853e-57
-3.598997493734336 0.999009426495435 -0.0032042317491817766 -1.3288394292988355e-39 -1.3288394292988404e-39 -3.439621848841425e-57
-3.5789473684210527 0.9970423099351118 -0.004564565717560579 -2.3561036447826198e-39 -2.356103644782621e-39 -7.590649257121374e-57
-3.5588972431077694 0.9944917735171722 -0.0064974386456987014 -3.676718992108649e-39 -3.676718992108643e-39 -1.298578762470924e-56
-3.5388471177944862 0.991815045540199 -0.008793335403326618 -5.1452269749038945e-39 -5.1452269749039004e-39 -1.8790790181750207e-56
-3.518796992481203 0.9891077723861229 -0.011285899714945062 -6.676609919282285e-39 -6.67660991928228e-39 -2.465275309099942e-56
-3.49874686716792 0.9863836486546462 -0.01388711395392307 -8.232871868273506e-39 -8.232871868273485e-39 -3.046353655232865e-56
-3.4786967418546366 0.9836443604794067 -0.0165547519302468 -9.797398043409468e-39 -9.797398043409456e-39 -3.618998760190136e-56
-3.4586466165413534 0.9808899534882919 -0.019268403198348116 -1.1362480298798431e-38 -1.1362480298798398e-38 -4.182059112542762e-56
-3.43859649122807 0.9781202474724128 -0.02201790310718516 -1.292426324531283e-38 -1.292426324531288e-38 -4.735057318906942e-56
-3.418546365914787 0.9753350270544441 -0.024798108379360386 -1.4480675907246976e-38 -1.4480675907246926e-38 -5.277748851176722e-56
-3.398496240601504 0.9725340671893083 -0.027606484709551498 -1.6030533562876493e-38 -1.603053356287648e-38 -5.809977529551019e-56
-3.3784461152882206 0.9697171364082635 -0.030441939767046275 -1.757312048278664e-38 -1.757312048278666e-38 -6.331623133008171e-56
-3.3583959899749374 0.966883997056008 -0.033304229704408654 -1.9107983319634412e-38 -1.9107983319634417e-38 -6.842580571953947e-56
-3.338345864661654 0.9640344051123978 -0.03619364306306793 -2.0634822811663163e-38 -2.063482281166312e-38 -7.342750899407888e-56
-3.318295739348371 0.9611681099470623 -0.039110825666262033 -2.215343411583394e-38 -2.215343411583414e-38 -7.832037131396592e-56
-3.2982456140350878 0.9582848540530704 -0.04205668060954838 -2.3663672474240154e-38 -2.366367247424012e-38 -8.31034216076544e-56
-3.2781954887218046 0.9553843727650553 -0.04503231004194681 -2.5165432696518086e-38 -2.51654326965181e-38 -8.77756763790233e-56
-3.2581453634085213 0.952466393961643 -0.048038981183705066 -2.665863648856215e-38 -2.6658636488562205e-38 -9.233613321001623e-56
-3.238095238095238 0.9495306377512236 -0.05107810697660101 -2.8143224400291947e-38 -2.8143224400291905e-38 -9.678376663833246e-56
-3.218045112781955 0.9465768161398876 -0.054151235937498314 -2.961915058121989e-38 -2.961915058121997e-38 -1.0111752527323778e-55
-3.1979949874686717 0.9436046326802612 -0.057260048060080095 -3.108637929271378e-38 -3.1086379292713997e-38 -1.0533632956700873e-55
-3.1779448621553885 0.9406137820999061 -0.060406354891460706 -3.254488254846473e-38 -3.2544882548464884e-38 -1.0943906993100615e-55
-3.1578947368421053 0.9376039499076119 -0.06359210265654716 -3.399463849716392e-38 -3.399463849716386e-38 -1.1342460502342839e-55
-3.137844611528822 0.9345748119761198 -0.0668193777510827 -3.5435630304510664e-38 -3.543563030451068e-38 -1.1729176010856074e-55
-3.117794486215539 0.9315260340994985 -0.07009041420258592 -3.6867845378436e-38 -3.686784537843606e-38 -1.2103932542670814e-55
-3.0977443609022557 0.9284572715227241 -0.07340760287713721 -3.8291274835195876e-38 -3.8291274835195986e-38 -1.2466605453592128e-55
-3.0776942355889725 0.9253681684424261 -0.07677350232999021 -3.970591313810886e-38 -3.970591313810896e-38 -1.2817066259889449e-55
-3.0576441102756893 0.9222583574747547 -0.08019085128259744 -4.111175786277838e-38 -4.1111757862778403e-38 -1.3155182459554862e-55
-3.037593984962406 0.9191274590897567 -0.08366258277236065 -4.2508809557192327e-38 -4.250880955719273e-38 -1.3480817344563487e-55
-3.017543859649123 0.9159750810078788 -0.08719184007274937 -4.3897071674834425e-38 -4.3897071674834154e-38 -1.379382980278817e-55
-2.9974937343358397 0.9128008175555441 -0.09078199452672625 -4.5276550565659614e-38 -4.527655056565946e-38 -1.409407410831282e-55
-2.9774436090225564 0.9096042489787904 -0.09443666547877294 -4.6647255514387006e-38 -4.6647255514387043e-38 -1.4381399698910776e-55
-2.9573934837092732 0.9063849407063697 -0.09815974253377333 -4.800919881886975e-38 -4.800919881886952e-38 -1.4655650939439565e-55
-2.93734335839599 0.903142442563238 -0.1019554104167126 -4.936239590371092e-38 -4.936239590371081e-38 -1.4916666869818253e-55
-2.917293233082707 0.899876287927789 -0.10582817675689132 -5.070686546600983e-38 -5.070686546600968e-38 -1.5164280936185172e-55
-2.8972431077694236 0.896585992824811 -0.10978290317732085 -5.204262965153083e-38 -5.204262965153048e-38 -1.5398320703695003e-55
-2.8771929824561404 0.8932710549536258 -0.11382484013481248 -5.336971426061681e-38 -5.336971426061677e-38 -1.5618607549276932e-55
-2.857142857142857 0.8899309526429446 -0.11795966603203457 -5.468814898406658e-38 -5.468814898406617e-38 -1.5824956332516654e-55
-2.837092731829574 0.8865651437223596 -0.12219353121206727 -5.59979676699733e-38 -5.599796766997277e-38 -1.6017175042609459e-55
-2.817042606516291 0.8831730643063864 -0.12653310755106428 -5.729920862319306e-38 -5.729920862319293e-38 -1.6195064419124026e-55
-2.7969924812030076 0.8797541274823978 -0.13098564449031677 -5.859191493982307e-38 -5.85919149398229e-38 -1.6358417544049347e-55
-2.7769423558897244 0.8763077218901096 -0.13555903249887094 -5.987613487974147e-38 -5.987613487974154e-38 -1.6507019402318552e-55
-2.756892230576441 0.8728332101802095 -0.14026187513843874 -6.11519222809962e-38 -6.115192228099562e-38 -1.664064640763857e-55
-2.736842105263158 0.8693299273442612 -0.1451035711200234 -6.241933702063436e-38 -6.241933702063519e-38 -1.6759065890092792e-55
-2.7167919799498748 0.8657971789002418 -0.15009440800602497 -6.367844552751942e-38 -6.36784455275195e-38 -1.686203554153412e-55
-2.6967418546365916 0.862234238912133 -0.15524566953345964 -6.492932135368053e-38 -6.492932135368041e-38 -1.6949302814269352e-55
-2.6766917293233083 0.8586403478325887 -0.16056975892844355 -6.617204581210507e-38 -6.617204581210496e-38 -1.7020604267941315e-55
-2.656641604010025 0.8550147101441326 -0.16608034106681036 -6.740670869032852e-38 -6.740670869032895e-38 -1.7075664858845998e-55
-2.636591478696742 0.8513564917749215 -0.1717925069357035 -6.863340905109509e-38 -6.863340905109518e-38 -1.7114197165117782e-55
-2.6165413533834587 0.847664817263405 -0.17772296459663406 -6.985225613365358e-38 -6.985225613365367e-38 -1.7135900540287123e-55
-2.5964912280701755 0.8439387666383265 -0.1838902617823079 -7.106337037213336e-38 -7.106337037213333e-38 -1.7140460186648817e-55
-2.5764411027568923 0.8401773719790828 -0.19031504643191421 -7.226688455111918e-38 -7.226688455111926e-38 -1.7127546138588245e-55
-2.556390977443609 0.8363796136146052 -0.19702037295181163 -7.346294512318509e-38 -7.346294512318523e-38 -1.7096812144549564e-55
-2.536340852130326 0.8325444159122535 -0.20403206387743528 -7.465171371926448e-38 -7.465171371926453e-38 -1.704789443454056e-55
-2.5162907268170427 0.8286706426008075 -0.21137913903311767 -7.583336889065252e-38 -7.583336889065208e-38 -1.6980410358006223e-55
-2.4962406015037595 0.8247570915574444 -0.21909432741483822 -7.700810813210665e-38 -7.700810813210694e-38 -1.6893956874411478e-55
-2.4761904761904763 0.8208024889824697 -0.22721468109309764 -7.817615024983807e-38 -7.817615024983835e-38 -1.6788108875913074e-55
-2.456140350877193 0.8168054828741748 -0.23578231577950357 -7.93377381579677e-38 -7.933773815796802e-38 -1.6662417317991238e-55
-2.43609022556391 0.8127646356891054 -0.24484530978262717 -8.049314221458055e-38 -8.049314221458089e-38 -1.6516407129665625e-55
-2.4160401002506267 0.8086784160593616 -0.2544588025503645 -8.164266424779037e-38 -8.164266424779025e-38 -1.6349574869874897e-55
-2.3959899749373434 0.8045451894119868 -0.26468634679522346 -8.278664247916658e-38 -8.278664247916629e-38 -1.6161386090566908e-55
-2.3759398496240602 0.8003632072994683 -0.2756015856905214 -8.392545763622832e-38 -8.39254576362283e-38 -1.595127235987683e-55
-2.355889724310777 0.7961305952176241 -0.2872903508212006 -8.505954067333834e-38 -8.505954067333907e-38 -1.5718627890432236e-55
-2.335839598997494 0.7918453386294982 -0.29985331049332237 -8.618938271820557e-38 -8.618938271820449e-38 -1.5462805708351159e-55
-2.3157894736842106 0.7875052668567364 -0.31340934625894723 -8.731554817565191e-38 -8.731554817565195e-38 -1.5183113288493454e-55
-2.2957393483709274 0.7831080344139694 -0.32809990527545 -8.84386924339201e-38 -8.843869243391921e-38 -1.4878807572557413e-55
-2.275689223057644 0.7786510992610768 -0.34409467881289396 -8.955958648272913e-38 -8.955958648272946e-38 -1.454908928284033e-55
-2.255639097744361 0.7741316973100141 -0.3615991114780371 -9.067915225257899e-38 -9.067915225257863e-38 -1.4193096455935696e-55
-2.235588972431078 0.7695468123460162 -0.3808644827612632 -9.179851518254212e-38 -9.179851518254331e-38 -1.3809897171768745e-55
-2.2155388471177946 0.7648931402849779 -0.40220167624776526 -9.291908556355964e-38 -9.29190855635604e-38 -1.3398481604705398e-55
-2.1954887218045114 0.7601670463666971 -0.4260003584319017 -9.40426900233493e-38 -9.40426900233513e-38 -1.2957753930418728e-55
-2.175438596491228 0.7553645134243216 -0.4527563057574008 -9.5171794559482e-38 -9.517179455948273e-38 -1.2486525703441522e-55
-2.155388471177945 0.7504810785841995 -0.4831113810622409 -9.630990357935233e-38 -9.630990357935168e-38 -1.1983515273728196e-55
-2.1353383458646618 0.7455117535334995 -0.5179138100701662 -9.74623172326147e-38 -9.74623172326147e-38 -1.1447366312495627e-55
-2.1152882205513786 0.7404509120991138 -0.558312093645622 -9.8637665331685e-38 -9.86376653316859e-38 -1.0876724785555303e-55
-2.0952380952380953 0.7352920514953842 -0.6059054606424412 -9.985124038308034e-38 -9.985124038308034e-38 -1.0270501919530583e-55
-2.075187969924812 0.7300267697607368 -0.6629831086273339 -1.0113277094516296e-37 -1.011327709451639e-37 -9.62877317052178e-56
-2.055137844611529 0.7246381500833416 -0.7328393897110096 -1.0254555540626582e-37 -1.0254555540626534e-37 -8.95600825456935e-56
-2.0350877192982457 0.7190540015358727 -0.8196859603134448 -1.0423255420044468e-37 -1.0423255420044448e-37 -8.27273037798906e-56
-2.0150375939849625 0.7128551357985806 -0.9255841458323305 -1.0649724897159827e-37 -1.0649724897159767e-37 -7.648045759496199e-56
-1.9949874686716793 0.7045132807839374 -1.04289820322387 -1.0977633772686282e-37 -1.0977633772686293e-37 -7.212156850511142e-56
-1.974937343358396 0.6931839867587608 -1.1649799282123317 -1.1422259180001691e-37 -1.1422259180001727e-37 -6.989967947176217e-56
-1.954887218045113 0.6804319030290626 -1.307206373180958 -1.1950438319147173e-37 -1.195043831914718e-37 -6.818881119810521e-56
-1.9348370927318297 0.6670677518189609 -1.4933730760599409 -1.2525680626614238e-37 -1.2525680626614203e-37 -6.557283450635063e-56
-1.9147869674185465 0.6531812027924486 -1.7530495704606068 -1.312997981475996e-37 -1.3129979814759975e-37 -6.137952545614248e-56
-1.8947368421052633 0.6386966204401043 -2.140306122245273 -1.3757956706612744e-37 -1.375795670661277e-37 -5.5197777238995795e-56
-1.87468671679198 0.6234689328706944 -2.78227556560595 -1.4410908873916969e-37 -1.4410908873916908e-37 -4.658780065241978e-56
-1.8546365914786969 0.6072476064767531 -4.073643472614987 -1.5094511065168223e-37 -1.5094511065168183e-37 -3.490958530687195e-56
-1.8345864661654137 0.5895420043819715 -8.146885241036065 -1.5817241860698057e-37 -1.5817241860698046e-37 -1.9167237243479828e-56
-1.8145363408521304 0.5694299360319719 99.19913284993912 -1.6582984412674608e-37 -1.6582984412674623e-37 1.7302430582358776e-57
-1.7944862155388472 0.5469019609495926 7.02015858957597 -1.736915740621733e-37 -1.7369157406217403e-37 2.68225574969809e-56
-1.774436090225564 0.5257046650178547 3.974871985106413 -1.812112352576824e-37 -1.8121123525768171e-37 5.156282480243405e-56
-1.7543859649122808 0.5074915601335968 3.024527922493924 -1.8802155684360772e-37 -1.8802155684360734e-37 7.2953695599071e-56
-1.7343358395989976 0.49127893486670693 2.5762663539876693 -1.9412651307347112e-37 -1.941265130734713e-37 9.129953215810041e-56
-1.7142857142857144 0.47635096104266406 2.3137416026760693 -1.996551565223106e-37 -1.9965515652231405e-37 1.0753152704444234e-55
-1.6942355889724312 0.46234925773222724 2.1392946101822763 -2.0472493788032792e-37 -2.047249378803256e-37 1.2228142899203885e-55
-1.674185463659148 0.4490723842737012 2.0138466554507533 -2.094217892485281e-37 -2.0942178924852805e-37 1.359273780543659e-55
-1.6541353383458648 0.4363910416165956 1.9186992186009981 -2.1380718705663836e-37 -2.1380718705663953e-37 1.4870559435715529e-55
-1.6340852130325816 0.42421443981642504 1.843712266966334 -2.1792612716281528e-37 -2.1792612716281415e-37 1.6077372083805425e-55
-1.6140350877192984 0.41247500357371447 1.7828703441155738 -2.218125886457703e-37 -2.218125886457696e-37 1.722432556507931e-55
-1.5939849624060152 0.40112037454202387 1.732359070707411 -2.254930044048795e-37 -2.2549300440487936e-37 1.8319678087562406e-55
-1.573934837092732 0.39010876647934856 1.6896329890697719 -2.289884742082655e-37 -2.289884742082676e-37 1.9369770391751997e-55
-1.5538847117794488 0.37940605594815413 1.6529234761720257 -2.323162121373633e-37 -2.3231621213735933e-37 2.0379611201495095e-55
-1.5338345864661656 0.3689838594307948 1.62096084393081 -2.354905225150734e-37 -2.354905225150725e-37 2.135324823297309e-55
-1.5137844611528823 0.35881821051317075 1.5928086277129399 -2.385234777148119e-37 -2.3852347771481093e-37 2.229401414967678e-55
-1.4937343358395991 0.34888860779865294 1.5677602652523013 -2.4142540196838845e-37 -2.4142540196838778e-37 2.320469580340569e-55
-1.473684210526316 0.3391773309403351 1.5452722404834247 -2.4420522548571434e-37 -2.4420522548571497e-37 2.408765424934646e-55
-1.4536340852130327 0.32966890800965054 1.5249193920437296 -2.4687074878540904e-37 -2.4687074878541038e-37 2.4944912655694342e-55
-1.4335839598997495 0.3203497333477384 1.506364288588552 -2.494288449249166e-37 -2.494288449249176e-37 2.577822120431252e-55
-1.4135338345864663 0.31120773749212705 1.489335632748419 -2.518856151549671e-37 -2.5188561515496915e-37 2.658910741541147e-55
-1.393483709273183 0.30223216831867505 1.4736128469992444 -2.5424651282987032e-37 -2.542465128298694e-37 2.7378913972276887e-55
-1.3734335839599 0.29341336222828407 1.4590147416366341 -2.565164411179953e-37 -2.5651644111799492e-37 2.8148829349747064e-55
-1.3533834586466167 0.28474262061769673 1.4453910951939701 -2.586998318743141e-37 -2.586998318743158e-37 2.8899912272937015e-55
-1.3333333333333335 0.2762120544258261 1.4326164366201168 -2.6080071250664367e-37 -2.608007125066444e-37 2.9633109361437073e-55
-1.3132832080200503 0.2678144757859702 1.4205850217976328 -2.6282275576384565e-37 -2.628227557638435e-37 3.0349273843015693e-55
-1.293233082706767 0.25954334257820433 1.409207258901238 -2.647693273381271e-37 -2.6476932733812757e-37 3.1049175980229482e-55
-1.2731829573934839 0.25139263480878205 1.3984067955494164 -2.666435236190977e-37 -2.6664352361909873e-37 3.1733513549956916e-55
-1.2531328320802007 0.243356812772191 1.3881179891435158 -2.684481980552336e-37 -2.68448198055233e-37 3.2402924590003166e-55
-1.2330827067669174 0.23543078887752789 1.3782842873029426 -2.7018599290407525e-37 -2.701859929040734e-37 3.305799136619198e-55
-1.2130325814536342 0.22760984660852945 1.3688568212597307 -2.7185936430369526e-37 -2.718593643036966e-37 3.369924537653394e-55
-1.192982456140351 0.21988957897644024 1.3597929263969333 -2.7347059454055072e-37 -2.7347059454054876e-37 3.43271777019061e-55
-1.1729323308270678 0.21226592526924282 1.3510552022647302 -2.7502181074970387e-37 -2.7502181074970416e-37 3.494224355374951e-55
-1.1528822055137846 0.20473509824488068 1.342611023376689 -2.765150065606734e-37 -2.765150065606717e-37 3.554486006718189e-55
-1.1328320802005014 0.19729355593318887 1.3344317423465766 -2.779520540629396e-37 -2.7795205406293777e-37 3.613541259368171e-55
-1.1127819548872182 0.18993794269915543 1.3264919036131968 -2.7933470659665303e-37 -2.793347065966555e-37 3.671426182117845e-55
-1.092731829573935 0.18266515574529207 1.3187688244950304 -2.8066460969383354e-37 -2.8066460969383667e-37 3.728174589673822e-55
-1.0726817042606518 0.1754722774135904 1.3112423970346936 -2.8194331898237004e-37 -2.819433189823689e-37 3.783818000877071e-55
-1.0526315789473686 0.16835656237114993 1.3038949621360265 -2.8317230688090854e-37 -2.8317230688090933e-37 3.8383852044392674e-55
-1.0325814536340854 0.16131542102458696 1.296710670111302 -2.8435296992158704e-37 -2.8435296992158775e-37 3.8919034605015115e-55
-1.0125313283208022 0.15434635936388963 1.2896752180748423 -2.854866250431367e-37 -2.854866250431337e-37 3.944398496554846e-55
-0.992481203007519 0.14744706417851383 1.2827757087197502 -2.8657451465855125e-37 -2.865745146585505e-37 3.9958944691823235e-55
-0.9724310776942358 0.1406153626926554 1.2760004014719626 -2.8761782411643744e-37 -2.8761782411643548e-37 4.0464146849486e-55
-0.9523809523809526 0.13384915863124192 1.26933889035684 -2.8861768231931714e-37 -2.886176823193183e-37 4.095980587685063e-55
-0.9323308270676693 0.12714649283891544 1.2627819963901357 -2.895751648397487e-37 -2.895751648397498e-37 4.144611705757348e-55
-0.9122807017543861 0.12050551334616255 1.2563212914949027 -2.9049130550910165e-37 -2.9049130550910286e-37 4.192327123883679e-55
-0.8922305764411029 0.11392440243841961 1.2499490665284287 -2.9136709065557712e-37 -2.913670906555765e-37 4.2391451252086815e-55
-0.8721804511278197 0.10740142620697246 1.2436584267196544 -2.922034516186061e-37 -2.9220345161860427e-37 4.285082352031227e-55
-0.8521303258145365 0.10093498390088218 1.237443020407207 -2.93001277730442e-37 -2.9300127773044107e-37 4.330154819552065e-55
-0.8320802005012533 0.09452354661444007 1.2312968583919905 -2.937614284232118e-37 -2.937614284232139e-37 4.374378692647576e-55
-0.8120300751879701 0.08816561176617299 1.2252145048128644 -2.9448472723001317e-37 -2.9448472723001317e-37 4.417769257806653e-55
-0.7919799498746869 0.08185974506269889 1.219191214517023 -2.9517195612943134e-37 -2.9517195612943134e-37 4.460340035856684e-55
-0.7719298245614037 0.07560461319923373 1.2132227276355034 -2.958238657014322e-37 -2.9582386570143276e-37 4.502103601549826e-55
-0.7518796992481205 0.06939895412810837 1.207305018148417 -2.964411875661684e-37 -2.9644118756616964e-37 4.543072728264884e-55
-0.7318295739348373 0.06324152820230489 1.2014343037449173 -2.970246327413548e-37 -2.970246327413534e-37 4.583260198532963e-55
-0.7117794486215541 0.057131113731951344 1.1956071863592528 -2.9757488141960923e-37 -2.975748814196084e-37 4.622677839305645e-55
-0.6917293233082709 0.051066541860445236 1.1898206863444651 -2.9809257911055106e-37 -2.980925791105527e-37 4.661336118885394e-55
-0.6716791979949877 0.045046715001395676 1.1840721096050888 -2.9857834404964977e-37 -2.9857834404964822e-37 4.699244748931049e-55
-0.6516290726817044 0.039070598187955996 1.1783588888420955 -2.9903277762776067e-37 -2.9903277762775833e-37 4.736413538433475e-55
-0.6315789473684212 0.03313719161095985 1.1726785437846776 -2.994564683016511e-37 -2.994564683016488e-37 4.772852618135791e-55
-0.611528822055138 0.027245512433649033 1.1670287339913352 -2.99849988161527e-37 -2.9984998816152596e-37 4.8085720656394045e-55
-0.5914786967418548 0.021394598792447428 1.1614073397474096 -3.0021388706367252e-37 -3.002138870636716e-37 4.8435813156445115e-55
-0.5714285714285716 0.015583518867554047 1.155812486068505 -3.005486901134103e-37 -3.005486901134105e-37 4.877888889108017e-55
-0.5513784461152884 0.009811384214938546 1.1502425018679057 -3.0085490002763724e-37 -3.008549000276345e-37 4.911502549979021e-55
-0.5313283208020052 0.004077349882451897 1.1446958617666798 -3.0113300208297735e-37 -3.011330020829783e-37 4.9444296381339415e-55
-0.511278195488722 -0.0016193913692679196 1.1391711255817316 -3.0138346901163186e-37 -3.013834690116302e-37 4.9766774347471664e-55
-0.4912280701754388 -0.007279616153814672 1.1336669211944383 -3.0160676340891777e-37 -3.0160676340891514e-37 5.008253277556798e-55
-0.4711779448621556 -0.01290408064873283 1.128181943476969 -3.0180333793956038e-37 -3.0180333793956163e-37 5.039164539173279e-55
-0.4511278195488724 -0.018493520872257196 1.122714968703523 -3.0197363405200824e-37 -3.019736340520113e-37 5.0694184864020126e-55
-0.43107769423558917 -0.02404865629240338 1.1172648720364375 -3.021180804082161e-37 -3.0211808040821818e-37 5.099022110821301e-55
-0.41102756892230596 -0.029570186631985518 1.1118306258586386 -3.0223709213387206e-37 -3.0223709213387172e-37 5.127982069324723e-55
-0.39097744360902276 -0.0350587905676929 1.106411304547882 -3.023310706742606e-37 -3.023310706742632e-37 5.1563046155910034e-55
-0.37092731829573955 -0.04051512613489816 1.1010060676298898 -3.0240040470019513e-37 -3.0240040470019375e-37 5.183995668426429e-55
-0.35087719298245634 -0.04593982778695538 1.0956141535671056 -3.0244547118379094e-37 -3.024454711837929e-37 5.2110608417504596e-55
-0.33082706766917314 -0.051333510613162936 1.0902348676134375 -3.024666366904334e-37 -3.0246663669043196e-37 5.237505513978646e-55
-0.31077694235588993 -0.056696767860769715 1.084867570627387 -3.0246425852806924e-37 -3.024642585280661e-37 5.263334893045486e-55
-0.2907268170426067 -0.06203017496142982 1.0795116783640595 -3.0243868546109652e-37 -3.0243868546109473e-37 5.288554019610036e-55
-0.2706766917293235 -0.06733428928785967 1.074166647541065 -3.0239025837769228e-37 -3.0239025837769353e-37 5.3131678353046585e-55
-0.2506265664160403 -0.07260965093026495 1.0688319792867602 -3.0231931032398742e-37 -3.02319310323989e-37 5.3371811467534304e-55
-0.2305764411027571 -0.07785678540694119 1.063507205129823 -3.0222616659165026e-37 -3.022261665916496e-37 5.3605986788101666e-55
-0.2105263157894739 -0.08307620131426119 1.0581918845970546 -3.0211114433515796e-37 -3.0211114433515796e-37 5.383425056271171e-55
-0.1904761904761907 -0.08826839482498894 1.0528855953979082 -3.0197455216188897e-37 -3.019745521618908e-37 5.4056648232026966e-55
-0.17042606516290748 -0.09343384681380895 1.04758792206172 -3.0181668967645204e-37 -3.0181668967645325e-37 5.4273224712122245e-55
-0.15037593984962427 -0.09857302675243274 1.0422984546000873 -3.016378469292055e-37 -3.0163784692920652e-37 5.448402414794331e-55
-0.13032581453634107 -0.10368639216287301 1.037016775619391 -3.014383043812933e-37 -3.0143830438129133e-37 5.468909046363522e-55
-0.11027568922305786 -0.10877438988511545 1.0317424705768101 -3.0121833296047236e-37 -3.0121833296047144e-37 5.488846675213465e-55
-0.09022556390977465 -0.11383745879185292 1.026475127033898 -3.0097819508067344e-37 -3.0097819508067248e-37 5.508219558171418e-55
-0.07017543859649145 -0.11887602792246632 1.0212143563168092 -3.007181461008545e-37 -3.0071814610085557e-37 5.527031826478392e-55
-0.05012531328320824 -0.12389052070906592 1.0159598128188656 -3.0043843666236225e-37 -3.00438436662363e-37 5.5452874535173755e-55
-0.030075187969925032 -0.12888135106358312 1.0107112184996014 -3.0013931545246886e-37 -3.0013931545246978e-37 5.562990206765399e-55
-0.010025062656641825 -0.13384892591474307 1.0054683913823894 -2.9982103186016595e-37 -2.9982103186016437e-37 5.5801435695237785e-55
0.010025062656641381 -0.13879364133791472 1.0002312526889237 -2.9948383820066637e-37 -2.994838382006636e-37 5.596750760841284e-55
0.030075187969924144 -0.14371588137683045 0.9949998346770224 -2.991279901923854e-37 -2.9912799019238615e-37 5.612814686112975e-55
0.050125313283207795 -0.14861601666761026 0.9897742484238199 -2.9875374572053387e-37 -2.9875374572053545e-37 5.62833804930875e-55
0.07017543859649145 -0.1534944008254353 0.9845546456010493 -2.9836136090849695e-37 -2.983613609084993e-37 5.643323405581981e-55
0.09022556390977421 -0.158351373529116 0.9793411496261544 -2.979510843828646e-37 -2.9795108438286503e-37 5.657773329164756e-55
0.11027568922305697 -0.1631872584621603 0.9741337865151862 -2.9752315040353077e-37 -2.9752315040352964e-37 5.671690553389092e-55
0.13032581453634062 -0.16800237070638158 0.9689324277995036 -2.97077772694781e-37 -2.9707777269478145e-37 5.6850780794559946e-55
0.15037593984962427 -0.17279701915994572 0.9637367552455597 -2.9661514125683638e-37 -2.966151412568361e-37 5.697939280851075e-55
0.17042606516290704 -0.17757151426381235 0.9585462856531016 -2.9613542365025566e-37 -2.9613542365025854e-37 5.710277829131921e-55
0.1904761904761898 -0.1823261728270924 0.9533604311360864 -2.9563877238689455e-37 -2.956387723868951e-37 5.722097637636657e-55
0.21052631578947345 -0.18706131921508073 0.9481786217558974 -2.9512533724795257e-37 -2.951253372479514e-37 5.733402609893439e-55
0.2305764411027571 -0.1917772863477325 0.9430004347590887 -2.9459528079736453e-37 -2.945952807973687e-37 5.744196450216868e-55
0.25062656641603986 -0.19647440620919476 0.937825718940187 -2.9404879259589717e-37 -2.9404879259589713e-37 5.75448243213144e-55
0.2706766917293226 -0.2011530036518916 0.9326546620990639 -2.934860975887173e-37 -2.9348609758871673e-37 5.764263268533767e-55
0.2907268170426063 -0.20581338181698694 0.9274877691306336 -2.9290745454511138e-37 -2.9290745454511e-37 5.7735411351028486e-55
0.31077694235588993 -0.21045581481105047 0.9223257551028522 -2.9231314237372407e-37 -2.92313142373725e-37 5.7823177515085686e-55
0.3308270676691727 -0.21508054245605934 0.9171693463619874 -2.9170343639689974e-37 -2.9170343639689907e-37 5.79059466161579e-55
0.35087719298245545 -0.2196877730955804 0.9120190673505894 -2.91078579384526e-37 -2.910785793845293e-37 5.7983734287948194e-55
0.3709273182957391 -0.22427769734038216 0.9068750467530919 -2.9043875622938375e-37 -2.9043875622938317e-37 5.8056558856054196e-55
0.39097744360902276 -0.22885050310737487 0.9017369325228324 -2.89784080665004e-37 -2.897840806650008e-37 5.8124441952120964e-55
0.4110275689223055 -0.23340639885244285 0.8966039421220008 -2.8911460093120207e-37 -2.891146009312004e-37 5.8187408096382595e-55
0.4310776942355883 -0.2379456262199413 0.8914750515225935 -2.8843032586161607e-37 -2.8843032586161653e-37 5.824548337788195e-55
0.45112781954887193 -0.24246846846307002 0.8863492881452972 -2.8773126615779796e-37 -2.877312661578023e-37 5.8298693169395024e-55
0.4711779448621556 -0.24697524269364313 0.8812260236818987 -2.87017480256219e-37 -2.870174802562163e-37 5.8347061283686486e-55
0.49122807017543835 -0.25146627996581605 0.8761051976803286 -2.8628911010256383e-37 -2.8628911010256337e-37 5.839060922905397e-55
0.5112781954887211 -0.25594189986952665 0.8709873664246092 -2.85546394528108e-37 -2.8554639452810732e-37 5.84293577181182e-55
0.5313283208020048 -0.26040238030683116 0.8658735684868399 -2.847896528735619e-37 -2.8478965287356276e-37 5.846332831534232e-55
0.5513784461152884 -0.2648479418408447 0.8607650265908134 -2.840192413002293e-37 -2.8401924130022905e-37 5.849254517607411e-55
0.5714285714285712 -0.2692787416277891 0.8556627738925678 -2.8323549338750062e-37 -2.8323549338749866e-37 5.8517035891605795e-55
0.5914786967418539 -0.27369488929130825 0.8505673348079359 -2.8243866276609098e-37 -2.824386627660909e-37 5.8536829928769046e-55
0.6115288220551376 -0.27809647515625 0.8454785486872872 -2.8162888693067736e-37 -2.8162888693068187e-37 5.8551956364198536e-55
0.6315789473684212 -0.28248360365482195 0.8403956215220656 -2.808061848279508e-37 -2.808061848279533e-37 5.856243999344239e-55
0.651629072681704 -0.2868564257135946 0.8353173741737155 -2.7997049115181e-37 -2.799704911518051e-37 5.856829886964645e-55
0.6716791979949868 -0.29121515190040403 0.8302426212194068 -2.791217174735424e-37 -2.791217174735431e-37 5.8569543517180165e-55
0.6917293233082704 -0.29556005123195894 0.8251705534555784 -2.7825982129496132e-37 -2.7825982129496266e-37 5.856617871644729e-55
0.7117794486215541 -0.29989142693216553 0.8201009905461688 -2.7738486095452313e-37 -2.7738486095452413e-37 5.855820813161378e-55
0.7318295739348368 -0.3042095821905535 0.8150344366870385 -2.7649701811090824e-37 -2.764970181109087e-37 5.854563912419066e-55
0.7518796992481196 -0.30851478601104 0.8099719061223116 -2.7559658077056626e-37 -2.7559658077056505e-37 5.8528487462451224e-55
0.7719298245614032 -0.3128072463455842 0.8049145974270786 -2.746838922180308e-37 -2.7468389221803197e-37 5.850677881410972e-55
0.7919799498746869 -0.3170871061503422 0.7998635189024239 -2.7375928299987587e-37 -2.737592829998774e-37 5.848054702077421e-55
0.8120300751879697 -0.3213544548108931 0.7948191895739274 -2.7282300826419037e-37 -2.728230082641907e-37 5.8449829554916315e-55
0.8320802005012524 -0.32560935750657594 0.7897815178883133 -2.7187521031884853e-37 -2.7187521031885125e-37 5.841466096720882e-55
0.8521303258145361 -0.32985188959698686 0.7847498740462289 -2.7091591781130223e-37 -2.7091591781130202e-37 5.837506774492083e-55
0.8721804511278197 -0.33408216361519005 0.7797233347387353 -2.6994507993349393e-37 -2.6994507993349184e-37 5.833106522274818e-55
0.8922305764411025 -0.33830034602888404 0.7747009999673381 -2.6896262320904964e-37 -2.689626232090508e-37 5.828265849116669e-55
0.9122807017543852 -0.34250665210284614 0.7696822774134655 -2.679685115214217e-37 -2.6796851152142387e-37 5.8229846783523496e-55
0.9323308270676689 -0.3467013278280915 0.7646670520424697 -2.669627901339309e-37 -2.6696279013392783e-37 5.817262933588785e-55
0.9523809523809526 -0.3508846225140214 0.759655686950127 -2.659456012438595e-37 -2.659456012438583e-37 5.811101160570197e-55
0.9724310776942353 -0.3550567600463841 0.754648882528663 -2.6491716818804285e-37 -2.649171681880442e-37 5.804500875847709e-55
0.9924812030075181 -0.3592179224070895 0.749647444927092 -2.6387775596107714e-37 -2.6387775596107864e-37 5.7974645999577314e-55
1.0125313283208017 -0.3633682435259662 0.7446520458959869 -2.628276222823532e-37 -2.628276222823532e-37 5.7899955709449416e-55
1.0325814536340854 -0.3675078188894294 0.7396630541322992 -2.617669749119546e-37 -2.6176697491195516e-37 5.782097200320672e-55
1.0526315789473681 -0.37163672522306457 0.7346804716780329 -2.606959476539073e-37 -2.6069594765390532e-37 5.773772543148197e-55
1.072681704260651 -0.37575504102355617 0.7297039890164874 -2.5961460005161127e-37 -2.596146000516108e-37 5.76502388164653e-55
1.0927318295739346 -0.3798628665864858 0.7247331234345464 -2.5852293826012964e-37 -2.585229382601286e-37 5.75585257669113e-55
1.1127819548872182 -0.38396033333017776 0.7197673858707916 -2.5742094853423917e-37 -2.5742094853423833e-37 5.7462592354757774e-55
1.132832080200501 -0.3880476030473272 0.7148064301861438 -2.5630863196537823e-37 -2.5630863196538053e-37 5.7362440581388976e-55
1.1528822055137837 -0.3921248598636302 0.7098501380590166 -2.5518603055586794e-37 -2.5518603055587003e-37 5.725807302027128e-55
1.1729323308270674 -0.39619229435592573 0.7048986288687212 -2.540532384239359e-37 -2.5405323842393667e-37 5.714949682095833e-55
1.192982456140351 -0.4002500891026046 0.6999522056709341 -2.529103971271943e-37 -2.5291039712719595e-37 5.703672580913005e-55
1.2130325814536338 -0.40429840771374614 0.6950112578845229 -2.5175767884325116e-37 -2.5175767884325145e-37 5.691978074125824e-55
1.2330827067669166 -0.4083373884646295 0.6900761596605941 -2.5059526369027673e-37 -2.5059526369027886e-37 5.6798687382284705e-55
1.2531328320802002 -0.4123671467199195 0.6851471897725073 -2.4942331815801093e-37 -2.4942331815801243e-37 5.667347340302329e-55
1.2731829573934839 -0.4163877812455865 0.6802244879701286 -2.482419801042762e-37 -2.4824198010427533e-37 5.654416528803852e-55
1.2932330827067666 -0.4203993828512136 0.675308056148273 -2.470513529283403e-37 -2.4705135292834114e-37 5.641078569707947e-55
1.3132832080200494 -0.4244020446842156 0.6703977918422778 -2.4585150882229905e-37 -2.4585150882230147e-37 5.627335222749473e-55
1.333333333333333 -0.428395868651839 0.6654935392649906 -2.446424986389868e-37 -2.446424986389867e-37 5.613187767419436e-55
1.3533834586466167 -0.432380968731382 0.6605951443843113 -2.434243647047536e-37 -2.434243647047527e-37 5.598637124389258e-55
1.3734335839598995 -0.43635747168644334 0.6557024969439176 -2.421971530607045e-37 -2.4219715306070615e-37 5.583684056919984e-55
1.3934837092731822 -0.44032551334254766 0.6508155535997773 -2.4096092241452843e-37 -2.4096092241452717e-37 5.568329379716527e-55
1.4135338345864659 -0.4442852338434642 0.645934342712747 -2.3971574844798883e-37 -2.397157484479898e-37 5.5525741105851155e-55
1.4335839598997495 -0.4482367732739285 0.6410589516062186 -2.3846172358525345e-37 -2.38461723585253e-37 5.536419564384679e-55
1.4536340852130323 -0.45218026684779056 0.6361895045023398 -2.3719895325219186e-37 -2.3719895325219407e-37 5.5198673674238126e-55
1.473684210526315 -0.4561158422569638 0.6313261391290905 -2.3592755019220113e-37 -2.359275501922018e-37 5.50291939562734e-55
1.4937343358395987 -0.460043619276185 0.6264689853878367 -2.346476284986379e-37 -2.3464762849863846e-37 5.48557768333202e-55
1.5137844611528823 -0.4639637098511433 0.6216181507879063 -2.3335929860777858e-37 -2.3335929860777745e-37 5.467844318831241e-55
1.533834586466165 -0.467876219686719 0.61677371453679 -2.3206266397791877e-37 -2.320626639779178e-37 5.449721342912496e-55
1.5538847117794479 -0.47178125087409417 0.6119357276996913 -2.307578196914763e-37 -2.3075781969147464e-37 5.431210683353456e-55
1.5739348370927315 -0.47567890369463495 0.6071042181344299 -2.2944485273394192e-37 -2.2944485273394192e-37 5.4123141250523104e-55
1.5939849624060152 -0.4795692782022334 0.6022791986974347 -2.2812384344058726e-37 -2.2812384344058764e-37 5.3930333051093614e-55
1.614035087719298 -0.48345247582530115 0.5974606753538888 -2.2679486756192315e-37 -2.2679486756192374e-37 5.373369737081049e-55
1.6340852130325807 -0.48732859981780363 0.5926486537679166 -2.254579984251951e-37 -2.254579984251921e-37 5.353324852921111e-55
1.6541353383458643 -0.4911977550124791 0.587843144431891 -2.2411330879125146e-37 -2.2411330879125112e-37 5.33290004348655e-55
1.674185463659148 -0.4950600477399658 0.5830441654908276 -2.2276087220623663e-37 -2.2276087220623726e-37 5.312096695904422e-55
1.6942355889724308 -0.49891558535724934 0.5782517431840394 -2.2140076379416975e-37 -2.2140076379417004e-37 5.290916226196103e-55
1.7142857142857135 -0.5027644753336378 0.5734659111143657 -2.2003306052934947e-37 -2.200330605293484e-37 5.2693600981441915e-55
1.7343358395989972 -0.506606824706783 0.5686867088666896 -2.1865784111046344e-37 -2.1865784111046357e-37 5.247429829382762e-55
1.7543859649122808 -0.5104427398347529 0.5639141800004592 -2.172751855911878e-37 -2.172751855911872e-37 5.2251269918181986e-55
1.7744360902255636 -0.5142723259702879 0.5591483700660715 -2.1588517489677895e-37 -2.1588517489677624e-37 5.2024532065735764e-55
1.7944862155388464 -0.5180956869525466 0.5543893251824686 -2.1448789032720723e-37 -2.1448789032720727e-37 5.179410133205312e-55
1.81453634085213 -0.5219129253007617 0.5496370909999033 -2.1308341312399803e-37 -2.1308341312399724e-37 5.1559994584188075e-55
1.8345864661654137 -0.5257241423604153 0.544891711907877 -2.1167182414094345e-37 -2.116718241409442e-37 5.13222288749382e-55
1.8546365914786964 -0.5295294382959195 0.5401532306682395 -2.1025320362322074e-37 -2.1025320362322262e-37 5.108082136943333e-55
1.8746867167919792 -0.5333289121742664 0.5354216884449814 -2.0882763108451226e-37 -2.0882763108451276e-37 5.083578928134198e-55
1.8947368421052628 -0.5371226622132348 0.5306971249536205 -2.073951852666471e-37 -2.073951852666461e-37 5.0587149837178315e-55
1.9147869674185465 -0.5409107859629034 0.5259795786171408 -2.0595594415931974e-37 -2.0595594415932107e-37 5.033492026881027e-55
1.9348370927318292 -0.544693380345066 0.5212690867958012 -2.045099850550329e-37 -2.0450998505503413e-37 5.007911781592183e-55
1.954887218045112 -0.5484705417066436 0.5165656860703655 -2.0305738462039847e-37 -2.0305738462039817e-37 4.981975973119664e-55
1.9749373433583957 -0.5522423659474442 0.5118694124657076 -2.0159821897202644e-37 -2.015982189720291e-37 4.955686329333877e-55
1.9949874686716793 -0.5560089486164026 0.507180301580843 -2.0013256374841226e-37 -2.0013256374841443e-37 4.929044582718441e-55
2.015037593984962 -0.5597703849194477 0.5024983886819139 -1.9866049417154793e-37 -1.986604941715443e-37 4.902052472252064e-55
2.035087719298245 -0.5635267697060775 0.49782370879057886 -1.9718208509556388e-37 -1.9718208509555937e-37 4.874711744711356e-55
2.0551378446115285 -0.5672781974957395 0.49315629674602507 -1.9569741104326483e-37 -1.956974110432636e-37 4.84702415564354e-55
2.075187969924812 -0.5710247625201788 0.48849618722329785 -1.9420654623264597e-37 -1.942065462326444e-37 4.818991470283345e-55
2.095238095238095 -0.5747665587334232 0.48384341472746745 -1.9270956459582894e-37 -1.927095645958283e-37 4.7906154643464244e-55
2.1152882205513777 -0.5785036797870848 0.479198013589879 -1.912065397933151e-37 -1.912065397933152e-37 4.7618979245824946e-55
2.1353383458646613 -0.5822362190004764 0.4745600179740983 -1.8969754522750883e-37 -1.8969754522750896e-37 4.732840649207539e-55
2.155388471177945 -0.5859642693418048 0.46992946188263107 -1.8818265406028913e-37 -1.8818265406029084e-37 4.703445448539409e-55
2.1754385964912277 -0.5896879234102745 0.46530637915860007 -1.8666193923981448e-37 -1.866619392398148e-37 4.673714146156987e-55
2.1954887218045105 -0.593407273405911 0.4606908034825411 -1.8513547354134973e-37 -1.8513547354135013e-37 4.6436485808292946e-55
2.215538847117794 -0.5971224110910212 0.4560827683656789 -1.8360332962614692e-37 -1.8360332962615036e-37 4.6132506094115526e-55
2.235588972431078 -0.6008334277631102 0.4514823071334965 -1.8206558011979352e-37 -1.8206558011979386e-37 4.582522110854379e-55
2.2556390977443606 -0.604540414265325 0.44688945289017945 -1.8052229770713095e-37 -1.805222977071302e-37 4.551464991290143e-55
2.2756892230576433 -0.6082434610591037 0.4423042384547008 -1.7897355523368213e-37 -1.7897355523368193e-37 4.520081189793932e-55
2.295739348370927 -0.6119426583803218 0.4377266962674681 -1.7741942579422426e-37 -1.7741942579422733e-37 4.4883726838621106e-55
2.3157894736842106 -0.6156380964926547 0.4331568582783377 -1.7585998277952827e-37 -1.75859982779528e-37 4.45634149302504e-55
2.3358395989974934 -0.6193298660330782 0.4285947558429585 -1.7429529984564864e-37 -1.7429529984564887e-37 4.423989678487568e-55
2.355889724310776 -0.6230180584081011 0.42404041967018963 -1.7272545077242312e-37 -1.7272545077242426e-37 4.391319336608483e-55
2.37593984962406 -0.6267027661485236 0.41949387987193126 -1.7115050919504738e-37 -1.7115050919504552e-37 4.358332584790553e-55
2.3959899749373434 -0.6303840830781484 0.41495516615584094 -1.6957054823015203e-37 -1.695705482301524e-37 4.3250315403562894e-55
2.416040100250626 -0.6340621041252781 0.41042430815909325 -1.6798564007379616e-37 -1.6798564007379397e-37 4.2914182962936994e-55
2.436090225563909 -0.6377369246443907 0.405901335844071 -1.663958557099286e-37 -1.663958557099292e-37 4.2574949017529416e-55
2.4561403508771926 -0.6414086392542935 0.4013862797828862 -1.6480126490560416e-37 -1.6480126490560395e-37 4.223263358201733e-55
2.4761904761904763 -0.6450773404444121 0.39687917109466536 -1.6320193664245092e-37 -1.6320193664245042e-37 4.188725641599294e-55
2.496240601503759 -0.6487431174920255 0.3923800408420576 -1.6159794000816537e-37 -1.6159794000816572e-37 4.153883754176632e-55
2.516290726817042 -0.6524060564153455 0.3878889189038605 -1.599893453472584e-37 -1.599893453472583e-37 4.118739795672587e-55
2.5363408521303255 -0.65606624154137 0.38340583270551065 -1.5837622521857911e-37 -1.5837622521857905e-37 4.083296026867529e-55
2.556390977443609 -0.659723758622768 0.3789308065505738 -1.5675865458009079e-37 -1.5675865458009087e-37 4.047554887453559e-55
2.576441102756892 -0.6633786983815984 0.3744638623442877 -1.5513670979999468e-37 -1.5513670979999365e-37 4.011518938472812e-55
2.5964912280701746 -0.6670311584118549 0.37000502193203527 -1.535104666584307e-37 -1.5351046665843166e-37 3.975190734513108e-55
2.6165413533834583 -0.6706812414264449 0.3655543101055041 -1.5187999827194273e-37 -1.5187999827194281e-37 3.938572683364686e-55
2.636591478696742 -0.6743290495986856 0.3611117561964486 -1.502453743392123e-37 -1.5024537433921365e-37 3.9016669881133405e-55
2.6566416040100247 -0.6779746778427285 0.3566773922452868 -1.4860666267268597e-37 -1.4860666267268586e-37 3.8644757446638594e-55
2.6766917293233075 -0.681618211221259 0.3522512478298187 -1.4696393249320535e-37 -1.4696393249320729e-37 3.8270011684175464e-55
2.696741854636591 -0.6852597303134924 0.3478333449596559 -1.4531725724188529e-37 -1.4531725724188474e-37 3.789245797405852e-55
2.7167919799498748 -0.6888993222836732 0.34342369805284045 -1.4366671432300308e-37 -1.4366671432300362e-37 3.751212481691947e-55
2.7368421052631575 -0.6925370884452033 0.3390223208401366 -1.4201238134177405e-37 -1.4201238134177405e-37 3.712904113431207e-55
2.7568922305764403 -0.6961731391763899 0.33462923494693003 -1.4035433189688607e-37 -1.4035433189688607e-37 3.6743233124014904e-55
2.776942355889724 -0.6998075782799504 0.33024447071283525 -1.386926353434521e-37 -1.3869263534345364e-37 3.635472401985661e-55
2.7969924812030076 -0.7034404927807334 0.3258680569624691 -1.3702736148051278e-37 -1.370273614805129e-37 3.5963537654530796e-55
2.8170426065162903 -0.7070719626895683 0.321500009956666 -1.353585852832611e-37 -1.3535858528326117e-37 3.556970217288705e-55
2.837092731829573 -0.7107020823572814 0.3171403363388894 -1.3368638567106795e-37 -1.3368638567106676e-37 3.5173249090792644e-55
2.8571428571428568 -0.7143309653390659 0.3127890488742913 -1.3201083932001224e-37 -1.3201083932001312e-37 3.477420831027653e-55
2.8771929824561404 -0.7179587219582879 0.3084461736099887 -1.303320179120849e-37 -1.3033201791208528e-37 3.437260585429684e-55
2.897243107769423 -0.721585440464855 0.3041117354542339 -1.28649993269108e-37 -1.2864999326910806e-37 3.396846815524326e-55
2.917293233082706 -0.7252112044756638 0.2997857429645376 -1.2696484270032323e-37 -1.269648427003241e-37 3.3561826587246e-55
2.9373433583959896 -0.7288361213615382 0.2954681989845159 -1.2527664563171e-37 -1.2527664563170908e-37 3.3152714525790436e-55
2.9573934837092732 -0.7324603097778024 0.2911591202708377 -1.2358547727483595e-37 -1.235854772748356e-37 3.2741161798430505e-55
2.977443609022556 -0.7360838658970632 0.2868585287844352 -1.218914110752176e-37 -1.218914110752179e-37 3.2327196934680616e-55
2.9974937343358388 -0.7397068761212611 0.28256643020391936 -1.2019452513518637e-37 -1.2019452513518746e-37 3.1910852991700836e-55
3.0175438596491224 -0.7433294530700116 0.27828282444149055 -1.1849489949060763e-37 -1.1849489949060794e-37 3.1492164948942498e-55
3.037593984962406 -0.7469517150041523 0.27400772570458615 -1.1679261048624227e-37 -1.1679261048624344e-37 3.1071164451562226e-55
3.057644110275689 -0.7505737542451467 0.269741145868731 -1.1508773492593503e-37 -1.150877349259366e-37 3.0647883883032293e-55
3.0776942355889716 -0.7541956721394178 0.2654830812747867 -1.1338035367849874e-37 -1.1338035367849906e-37 3.0222359794230135e-55
3.0977443609022552 -0.757817592490412 0.26123353539370425 -1.1167054623143485e-37 -1.1167054623143562e-37 2.9794627439046388e-55
3.117794486215539 -0.7614396178488172 0.2569925169231134 -1.0995839083859969e-37 -1.0995839083859927e-37 2.936472105868944e-55
3.1378446115288217 -0.765061849982025 0.25276002012992876 -1.0824396914513507e-37 -1.0824396914513505e-37 2.893267859537712e-55
3.1578947368421044 -0.7686844141120186 0.2485360427165349 -1.0652736242067043e-37 -1.0652736242067139e-37 2.849853765047671e-55
3.177944862155388 -0.7723074160602319 0.24432058605623055 -1.04808651239278e-37 -1.0480865123927805e-37 2.8062335280820795e-55
3.1979949874686717 -0.7759309664900829 0.24011363953941717 -1.0308791885087858e-37 -1.0308791885087848e-37 2.7624111600773335e-55
3.2180451127819545 -0.7795551908778353 0.23591519752743154 -1.0136524787955706e-37 -1.0136524787955798e-37 2.7183906074049253e-55
3.2380952380952372 -0.7831801960985827 0.23172525122586926 -9.964072170012536e-38 -9.964072170012442e-38 2.674175918359852e-55
3.258145363408521 -0.7868061069499199 0.2275437856461712 -9.791442520641261e-38 -9.791442520641218e-38 2.6297713198936662e-55
3.2781954887218046 -0.7904330420992203 0.2233707892447093 -9.618644296399557e-38 -9.61864429639951e-38 2.5851810074704732e-55
3.2982456140350873 -0.7940611210360435 0.21920624240751865 -9.445686125108353e-38 -9.445686125108393e-38 2.54040938784399e-55
3.31829573934837 -0.7976904716134212 0.21505012686236824 -9.272576652044842e-38 -9.272576652044789e-38 2.495460887874782e-55
3.3383458646616537 -0.8013212140572021 0.2109024189830368 -9.099324642620336e-38 -9.099324642620371e-38 2.4503400874163237e-55
3.3583959899749374 -0.8049534804776917 0.20676309346909202 -8.925938933467861e-38 -8.925938933467861e-38 2.4050516505915216e-55
3.37844611528822 -0.8085873955349028 0.20263212116601184 -8.75242845911188e-38 -8.752428459111935e-38 2.3596003656210076e-55
3.398496240601503 -0.8122230941874744 0.19850946993210208 -8.578802246702918e-38 -8.578802246702897e-38 2.3139911320959632e-55
3.4185463659147866 -0.8158607065738008 0.19439510372473404 -8.405069425038541e-38 -8.405069425038622e-38 2.2682289766273736e-55
3.43859649122807 -0.819500370504201 0.19028898316112644 -8.231239222042062e-38 -8.231239222042023e-38 2.2223190450783567e-55
3.458646616541353 -0.8231422222786176 0.1861910643436117 -8.05732097901848e-38 -8.057320979018492e-38 2.176266624062023e-55
3.4786967418546357 -0.8267864025640725 0.18210129974584724 -7.883324142332963e-38 -7.883324142333028e-38 2.1300771261701137e-55
3.4987468671679194 -0.8304330543784675 0.17801963684478192 -7.709258281487174e-38 -7.709258281487189e-38 2.083756115747604e-55
3.518796992481203 -0.8340823220920301 0.17394601876781482 -7.535133082844048e-38 -7.535133082844039e-38 2.037309297926666e-55
3.538847117794486 -0.8377343545471099 0.16988038348588197 -7.360958361582647e-38 -7.360958361582639e-38 1.990742534460952e-55
3.5588972431077686 -0.8413893021840511 0.16582266363774892 -7.186744065164499e-38 -7.186744065164535e-38 1.944061847541604e-55
3.578947368421052 -0.8450473185764533 0.16177278634916015 -7.01250027789538e-38 -7.012500277895358e-38 1.8972734241970825e-55
3.598997493734336 -0.8487085608946205 0.15773067273075297 -6.838237228800431e-38 -6.838237228800448e-38 1.850383626180156e-55
3.6190476190476186 -0.8523731891288042 0.15369623757936102 -6.663965297345593e-38 -6.66396529734562e-38 1.8033989962263553e-55
3.6390977443609014 -0.8560413665668216 0.1496693890287479 -6.489695020081313e-38 -6.489695020081339e-38 1.7563262653116964e-55
3.659147869674185 -0.8597132601768933 0.14565002811777503 -6.31543709830008e-38 -6.31543709830004e-38 1.7091723613235746e-55
3.6791979949874687 -0.8633890405964428 0.14163804836343208 -6.141202405904288e-38 -6.141202405904311e-38 1.6619444176708924e-55
3.6992481203007515 -0.8670688822348496 0.13763333531960228 -5.967001997811136e-38 -5.967001997811103e-38 1.6146497822185269e-55
3.719298245614034 -0.8707529634913203 0.13363576610405292 -5.792847119132582e-38 -5.792847119132591e-38 1.56729602686404e-55
3.739348370927318 -0.8744414669607883 0.12964520889979295 -5.618749215182004e-38 -5.61874921518197e-38 1.5198909576924677e-55
3.7593984962406015 -0.8781345796225393 0.12566152243542336 -5.444719942417498e-38 -5.444719942417485e-38 1.472442625694e-55
3.7794486215538843 -0.8818324930377281 0.12168455544633539 -5.270771180508474e-38 -5.270771180508478e-38 1.4249593380994118e-55
3.799498746867167 -0.885535403563201 0.11771414612035669 -5.096915045755942e-38 -5.096915045755983e-38 1.3774496703901422e-55
3.8195488721804507 -0.8892435125798197 0.11375012153413461 -4.923163906154338e-38 -4.923163906154262e-38 1.3299224790358992e-55
3.8395989974937343 -0.8929570267344396 0.10979229709033764 -4.749530398471412e-38 -4.74953039847141e-38 1.2823869150143203e-55
3.859649122807017 -0.8966761581957949 0.10584047597001832 -4.576027447837993e-38 -4.5760274478380287e-38 1.2348524381758493e-55
3.8796992481203 -0.9004011249253028 0.10189444862154438 -4.4026682905045136e-38 -4.402668290504561e-38 1.1873288325229949e-55
3.8997493734335835 -0.9041321509645539 0.09795399231674333 -4.2294665006482476e-38 -4.229466500648315e-38 1.1398262224842682e-55
3.919799498746867 -0.9078694667422627 0.09401887081902942 -4.056436022436597e-38 -4.0564360224365665e-38 1.0923550902721693e-55
3.93984962406015 -0.9116133094009273 0.0900888342283097 -3.883591209011897e-38 -3.8835912090118683e-38 1.0449262944305973e-55
3.9598997493734327 -0.9153639231412998 0.08616361909710894 -3.710946870731687e-38 -3.710946870731677e-38 9.975510896963091e-56
3.9799498746867163 -0.9191215595915485 0.08224294895663717 -3.5385183359837435e-38 -3.538518335983737e-38 9.502411483263708e-56
4.0 -0.9228864782027351 0.07832653545796588 -3.3663215293681085e-38 -3.3663215293680897e-38 9.030085830836205e-56
